
     Program PWSCF v.7.5 starts on 20Aug2026 at 15:24:44 

     This program is part of the open-source Quantum ESPRESSO suite
     for quantum simulation of materials; please cite
         "P. Giannozzi et al., J. Phys.:Condens. Matter 21 395502 (2009);
         "P. Giannozzi et al., J. Phys.:Condens. Matter 29 465901 (2017);
         "P. Giannozzi et al., J. Chem. Phys. 152 154105 (2020);
          URL http://www.quantum-espresso.org", 
     in publications or presentations arising from this work. More details at
     http://www.quantum-espresso.org/quote

     Parallel version (MPI & OpenMP), running on       2 processor cores
     Number of MPI processes:                 2
     Threads/MPI process:                     1

     MPI processes distributed on     1 nodes
     1935 MiB available memory on the printing compute node when the environment starts

     Reading input from strain_hc2_clamp_m0050/bands.in

     Current dimensions of program PWSCF are:
     Max number of different atomic species (ntypx) = 10
     Max number of k-points (npk) =  40000
     Max angular momentum in pseudopotentials (lmaxx) =  4
     file Te.rel-pbe-n-rrkjus_psl.1.0.0.UPF: wavefunction(s)  5S renormalized

     Atomic positions and unit cell read from directory:
     /home/user/workspace/qe_runs/strain_hc2_clamp_m0050/out/tehc2clamp_m0050.save/

     Message from routine setup:
     using ibrav=0 with symmetry is DISCOURAGED, use correct ibrav instead

     R & G space division:  proc/nbgrp/npool/nimage =       2
     Subspace diagonalization in iterative solution of the eigenvalue problem:
     a serial algorithm will be used


     Parallelization info
     --------------------
     sticks:   dense  smooth     PW     G-vecs:    dense   smooth      PW
     Min        1362     684    198                76625    27068    4252
     Max        1363     685    199                76626    27075    4253
     Sum        2725    1369    397               153251    54143    8505

     Using Slab Decomposition



     bravais-lattice index     =            0
     lattice parameter (alat)  =       8.4229  a.u.
     unit-cell volume          =     684.9455 (a.u.)^3
     number of atoms/cell      =            3
     number of atomic types    =            1
     number of electrons       =        18.00
     number of Kohn-Sham states=           28
     kinetic-energy cutoff     =      70.0000  Ry
     charge density cutoff     =     560.0000  Ry
     Exchange-correlation= PBE
                           (   1   4   3   4   0   0   0)
     Non magnetic calculation with spin-orbit


     celldm(1)=   8.422887  celldm(2)=   0.000000  celldm(3)=   0.000000
     celldm(4)=   0.000000  celldm(5)=   0.000000  celldm(6)=   0.000000

     crystal axes: (cart. coord. in units of alat)
               a(1) = (   1.000000   0.000000   0.000000 )  
               a(2) = (  -0.500000   0.866025   0.000000 )  
               a(3) = (   0.000000   0.000000   1.323556 )  

     reciprocal axes: (cart. coord. in units 2 pi/alat)
               b(1) = (  1.000000  0.577350 -0.000000 )  
               b(2) = (  0.000000  1.154701  0.000000 )  
               b(3) = (  0.000000 -0.000000  0.755540 )  


     PseudoPot. # 1 for Te read from file:
     /home/user/workspace/qe_runs/pseudo/Te.rel-pbe-n-rrkjus_psl.1.0.0.UPF
     MD5 check sum: 7fd30b6833abd190471e4dcc2367351b
     Pseudo is Ultrasoft + core correction, Zval =  6.0
     Generated using &quot;atomic&quot; code by A. Dal Corso  v.6.3
     Using radial grid of 1245 points, 10 beta functions with: 
                l(1) =   0
                l(2) =   0
                l(3) =   1
                l(4) =   1
                l(5) =   1
                l(6) =   1
                l(7) =   2
                l(8) =   2
                l(9) =   2
               l(10) =   2
     Q(r) pseudized with 0 coefficients 


     atomic species   valence    mass     pseudopotential
     Te                6.00   127.60000     Te( 1.00)

      6 Sym. Ops. (no inversion) found ( 4 have fractional translation)



   Cartesian axes

     site n.     atom                  positions (alat units)
         1        Te     tau(   1) = (   0.2636000   0.0000000   0.4411854  )
         2        Te     tau(   2) = (  -0.1318000   0.2282843   0.8823709  )
         3        Te     tau(   3) = (  -0.1318000  -0.2282843   0.0000000  )

     number of k points=     7  Gaussian smearing, width (Ry)=  0.0100
                       cart. coord. in units 2pi/alat
        k(    1) = (   0.3333333   0.5773502   0.0000000), wk =   0.1428571
        k(    2) = (   0.3333333   0.5773502   0.1511080), wk =   0.1428571
        k(    3) = (   0.3333333   0.5773502   0.3022161), wk =   0.1428571
        k(    4) = (   0.3333333   0.5773502   0.3777701), wk =   0.1428571
        k(    5) = (   0.3333333   0.5773502   0.4533241), wk =   0.1428571
        k(    6) = (   0.3333333   0.5773502   0.6044322), wk =   0.1428571
        k(    7) = (   0.0000000   0.0000000   0.3777701), wk =   0.1428571

     Dense  grid:   153251 G-vectors     FFT dimensions: (  64,  64,  90)

     Smooth grid:    54143 G-vectors     FFT dimensions: (  45,  45,  60)

     Estimated max dynamical RAM per process >     780.12 MB

     Estimated total dynamical RAM >       1.52 GB

     The potential is recalculated from file :
     /home/user/workspace/qe_runs/strain_hc2_clamp_m0050/out/tehc2clamp_m0050.save/charge-density

     Starting wfcs are   24 randomized atomic wfcs +    4 random wfcs

     Band Structure Calculation
     Davidson diagonalization with overlap
     c_bands:  2 eigenvalues not converged

     ethr =  5.56E-11,  avg # of iterations = 65.0

     total cpu time spent up to now is       20.8 secs

     End of band structure calculation

          k = 0.3333 0.5774 0.0000 (  6819 PWs)   bands (ev):

    -6.4717  -6.4717  -4.6101  -4.6070  -4.6070  -4.5951   1.2721   1.4601
     1.4601   1.4758   2.8160   2.8160   2.9103   3.1136   3.1136   3.1423
     3.5003   3.5003   8.8244   8.8661   9.0332   9.0332   9.2830   9.2830
    10.8967  10.8967  11.9124  11.9124

          k = 0.3333 0.5774 0.1511 (  6783 PWs)   bands (ev):

    -6.3657  -6.3600  -5.0899  -5.0846  -4.2171  -4.2062   0.8999   0.9285
     1.2726   1.4203   2.0076   2.1225   3.0712   3.2507   4.1330   4.1977
     4.5228   4.7312   8.1191   8.2659   8.6734   8.7343   8.7444   8.8068
    11.1867  11.2380  11.6612  11.7029

          k = 0.3333 0.5774 0.3022 (  6768 PWs)   bands (ev):

    -6.0589  -6.0491  -5.6050  -5.5946  -3.9751  -3.9690   0.8009   0.8050
     0.8672   0.9033   1.2024   1.3087   4.4404   4.5425   5.4320   5.6438
     5.6959   6.0536   6.6971   6.7917   7.6132   7.7831   7.8670   7.9137
    11.8335  11.8529  12.0550  12.0998

          k = 0.3333 0.5774 0.3778 (  6738 PWs)   bands (ev):

    -5.8456  -5.8456  -5.8385  -5.8311  -3.9387  -3.9387   0.7685   0.7685
     0.9175   0.9709   1.0443   1.0443   4.9003   4.9003   5.8766   5.8766
     6.1274   6.2632   6.2632   6.2666   7.3985   7.4631   7.6307   7.6307
    11.9407  11.9407  12.6107  12.6148

          k = 0.3333 0.5774 0.4533 (  6768 PWs)   bands (ev):

    -6.0589  -6.0491  -5.6050  -5.5946  -3.9751  -3.9690   0.8009   0.8050
     0.8672   0.9033   1.2024   1.3087   4.4404   4.5425   5.4320   5.6438
     5.6959   6.0536   6.6971   6.7917   7.6132   7.7831   7.8670   7.9137
    11.8335  11.8529  12.0550  12.0998

          k = 0.3333 0.5774 0.6044 (  6783 PWs)   bands (ev):

    -6.3657  -6.3600  -5.0899  -5.0846  -4.2171  -4.2062   0.8999   0.9285
     1.2726   1.4203   2.0076   2.1225   3.0712   3.2507   4.1330   4.1977
     4.5228   4.7312   8.1191   8.2659   8.6734   8.7343   8.7444   8.8068
    11.1867  11.2380  11.6612  11.7029

          k = 0.0000 0.0000 0.3778 (  6822 PWs)   bands (ev):

    -6.7367  -6.7367  -6.7335  -6.7335  -2.0860  -2.0860   1.8787   1.8787
     3.1965   3.1965   3.4834   3.4834   4.5962   4.5962   4.8203   4.8203
     5.0995   5.0995   6.5054   6.5054   6.5998   6.5998   6.8296   6.8296
    10.0810  10.0810  11.3398  11.3398

     Writing all to output data dir /home/user/workspace/qe_runs/strain_hc2_clamp_m0050/out/tehc2clamp_m0050.save/ :
     XML data file, pseudopotentials, collected wavefunctions

     init_run     :      1.29s CPU      1.59s WALL (       1 calls)
     electrons    :     18.65s CPU     19.11s WALL (       1 calls)

     Called by init_run:
     wfcinit      :      0.00s CPU      0.00s WALL (       1 calls)
     potinit      :      0.19s CPU      0.20s WALL (       1 calls)
     hinit0       :      0.50s CPU      0.51s WALL (       1 calls)

     Called by electrons:
     c_bands      :     18.65s CPU     19.11s WALL (       1 calls)
     v_of_rho     :      0.06s CPU      0.07s WALL (       1 calls)
     newd         :      0.56s CPU      0.82s WALL (       1 calls)

     Called by c_bands:
     init_us_2    :      0.01s CPU      0.02s WALL (       7 calls)
     cegterg      :     17.79s CPU     18.20s WALL (      26 calls)

     Called by *egterg:
     cdiaghg      :      0.40s CPU      0.40s WALL (     462 calls)
     h_psi        :     13.92s CPU     14.31s WALL (     488 calls)
     s_psi        :      0.76s CPU      0.77s WALL (     488 calls)
     g_psi        :      0.19s CPU      0.19s WALL (     455 calls)

     Called by h_psi:
     h_psi:calbec :      0.92s CPU      0.95s WALL (     488 calls)
     vloc_psi     :     12.18s CPU     12.53s WALL (     488 calls)
                                        0.00s GPU  (     488 calls)
     add_vuspsi   :      0.74s CPU      0.75s WALL (     488 calls)

     General routines
     calbec       :      0.92s CPU      0.95s WALL (     488 calls)
     fft          :      0.18s CPU      0.19s WALL (      19 calls)
     ffts         :      0.10s CPU      0.10s WALL (       4 calls)
     fftw         :     10.87s CPU     11.18s WALL (   24064 calls)
     interpolate  :      0.11s CPU      0.11s WALL (       4 calls)
     davcio       :      0.00s CPU      0.03s WALL (      14 calls)

     Parallel routines

     PWSCF        :     20.11s CPU     23.33s WALL


   This run was terminated on:  15:25: 7  20Aug2026            

=------------------------------------------------------------------------------=
   JOB DONE.
=------------------------------------------------------------------------------=
