
     Program PWSCF v.7.5 starts on 20Aug2026 at 15:22:55 

     This program is part of the open-source Quantum ESPRESSO suite
     for quantum simulation of materials; please cite
         "P. Giannozzi et al., J. Phys.:Condens. Matter 21 395502 (2009);
         "P. Giannozzi et al., J. Phys.:Condens. Matter 29 465901 (2017);
         "P. Giannozzi et al., J. Chem. Phys. 152 154105 (2020);
          URL http://www.quantum-espresso.org", 
     in publications or presentations arising from this work. More details at
     http://www.quantum-espresso.org/quote

     Parallel version (MPI & OpenMP), running on       2 processor cores
     Number of MPI processes:                 2
     Threads/MPI process:                     1

     MPI processes distributed on     1 nodes
     2148 MiB available memory on the printing compute node when the environment starts

     Reading input from strain_hc2_clamp_m0050/scf.in

     Current dimensions of program PWSCF are:
     Max number of different atomic species (ntypx) = 10
     Max number of k-points (npk) =  40000
     Max angular momentum in pseudopotentials (lmaxx) =  4
     file Te.rel-pbe-n-rrkjus_psl.1.0.0.UPF: wavefunction(s)  5S renormalized
     Message from routine setup:
     using ibrav=0 with symmetry is DISCOURAGED, use correct ibrav instead

     R & G space division:  proc/nbgrp/npool/nimage =       2
     Subspace diagonalization in iterative solution of the eigenvalue problem:
     a serial algorithm will be used


     Parallelization info
     --------------------
     sticks:   dense  smooth     PW     G-vecs:    dense   smooth      PW
     Min        1362     684    189                76625    27068    4083
     Max        1363     685    190                76626    27075    4090
     Sum        2725    1369    379               153251    54143    8173

     Using Slab Decomposition



     bravais-lattice index     =            0
     lattice parameter (alat)  =       8.4229  a.u.
     unit-cell volume          =     684.9455 (a.u.)^3
     number of atoms/cell      =            3
     number of atomic types    =            1
     number of electrons       =        18.00
     number of Kohn-Sham states=           28
     kinetic-energy cutoff     =      70.0000  Ry
     charge density cutoff     =     560.0000  Ry
     scf convergence threshold =      1.0E-08
     mixing beta               =       0.7000
     number of iterations used =            8  plain     mixing
     Exchange-correlation= PBE
                           (   1   4   3   4   0   0   0)
     Non magnetic calculation with spin-orbit


     celldm(1)=   8.422887  celldm(2)=   0.000000  celldm(3)=   0.000000
     celldm(4)=   0.000000  celldm(5)=   0.000000  celldm(6)=   0.000000

     crystal axes: (cart. coord. in units of alat)
               a(1) = (   1.000000   0.000000   0.000000 )  
               a(2) = (  -0.500000   0.866025   0.000000 )  
               a(3) = (   0.000000   0.000000   1.323556 )  

     reciprocal axes: (cart. coord. in units 2 pi/alat)
               b(1) = (  1.000000  0.577350 -0.000000 )  
               b(2) = (  0.000000  1.154701  0.000000 )  
               b(3) = (  0.000000 -0.000000  0.755540 )  


     PseudoPot. # 1 for Te read from file:
     /home/user/workspace/qe_runs/pseudo/Te.rel-pbe-n-rrkjus_psl.1.0.0.UPF
     MD5 check sum: 7fd30b6833abd190471e4dcc2367351b
     Pseudo is Ultrasoft + core correction, Zval =  6.0
     Generated using &quot;atomic&quot; code by A. Dal Corso  v.6.3
     Using radial grid of 1245 points, 10 beta functions with: 
                l(1) =   0
                l(2) =   0
                l(3) =   1
                l(4) =   1
                l(5) =   1
                l(6) =   1
                l(7) =   2
                l(8) =   2
                l(9) =   2
               l(10) =   2
     Q(r) pseudized with 0 coefficients 


     atomic species   valence    mass     pseudopotential
     Te                6.00   127.60000     Te( 1.00)

      6 Sym. Ops. (no inversion) found ( 4 have fractional translation)



   Cartesian axes

     site n.     atom                  positions (alat units)
         1        Te     tau(   1) = (   0.2636000   0.0000000   0.4411854  )
         2        Te     tau(   2) = (  -0.1318000   0.2282843   0.8823709  )
         3        Te     tau(   3) = (  -0.1318000  -0.2282843   0.0000000  )

     number of k points=    34  Gaussian smearing, width (Ry)=  0.0100
                       cart. coord. in units 2pi/alat
        k(    1) = (   0.0000000   0.0000000   0.0000000), wk =   0.0046296
        k(    2) = (   0.0000000   0.0000000   0.1259234), wk =   0.0092593
        k(    3) = (   0.0000000   0.0000000   0.2518467), wk =   0.0092593
        k(    4) = (   0.0000000   0.0000000  -0.3777701), wk =   0.0046296
        k(    5) = (   0.0000000   0.1924501   0.0000000), wk =   0.0277778
        k(    6) = (   0.0000000   0.1924501   0.1259234), wk =   0.0277778
        k(    7) = (   0.0000000   0.1924501   0.2518467), wk =   0.0277778
        k(    8) = (   0.0000000   0.1924501  -0.3777701), wk =   0.0277778
        k(    9) = (   0.0000000   0.3849002   0.0000000), wk =   0.0277778
        k(   10) = (   0.0000000   0.3849002   0.1259234), wk =   0.0277778
        k(   11) = (   0.0000000   0.3849002   0.2518467), wk =   0.0277778
        k(   12) = (   0.0000000   0.3849002  -0.3777701), wk =   0.0277778
        k(   13) = (   0.0000000  -0.5773503   0.0000000), wk =   0.0138889
        k(   14) = (   0.0000000  -0.5773503   0.1259234), wk =   0.0277778
        k(   15) = (   0.0000000  -0.5773503   0.2518467), wk =   0.0277778
        k(   16) = (   0.0000000  -0.5773503  -0.3777701), wk =   0.0138889
        k(   17) = (   0.1666667   0.2886751   0.0000000), wk =   0.0277778
        k(   18) = (   0.1666667   0.2886751   0.1259234), wk =   0.0555556
        k(   19) = (   0.1666667   0.2886751   0.2518467), wk =   0.0555556
        k(   20) = (   0.1666667   0.2886751  -0.3777701), wk =   0.0277778
        k(   21) = (   0.1666667   0.4811252   0.0000000), wk =   0.0555556
        k(   22) = (   0.1666667   0.4811252   0.1259234), wk =   0.0555556
        k(   23) = (   0.1666667   0.4811252   0.2518467), wk =   0.0555556
        k(   24) = (   0.1666667   0.4811252  -0.3777701), wk =   0.0555556
        k(   25) = (   0.3333333   0.5773503   0.0000000), wk =   0.0092593
        k(   26) = (   0.3333333   0.5773503   0.1259234), wk =   0.0185185
        k(   27) = (   0.3333333   0.5773503   0.2518467), wk =   0.0185185
        k(   28) = (   0.3333333   0.5773503  -0.3777701), wk =   0.0092593
        k(   29) = (   0.0000000   0.1924501  -0.1259234), wk =   0.0277778
        k(   30) = (   0.0000000   0.1924501  -0.2518467), wk =   0.0277778
        k(   31) = (   0.0000000   0.3849002  -0.1259234), wk =   0.0277778
        k(   32) = (   0.0000000   0.3849002  -0.2518467), wk =   0.0277778
        k(   33) = (  -0.1666667   0.4811252  -0.1259234), wk =   0.0555556
        k(   34) = (  -0.1666667   0.4811252  -0.2518467), wk =   0.0555556

     Dense  grid:   153251 G-vectors     FFT dimensions: (  64,  64,  90)

     Smooth grid:    54143 G-vectors     FFT dimensions: (  45,  45,  60)

     Estimated max dynamical RAM per process >     963.66 MB

     Estimated total dynamical RAM >       1.88 GB

     Initial potential from superposition of free atoms

     starting charge      17.9993, renormalised to      18.0000
     Starting wfcs are   24 randomized atomic wfcs +    4 random wfcs

     total cpu time spent up to now is        4.4 secs

     per-process dynamical memory:   193.1 Mb

     Self-consistent Calculation

     iteration #  1     ecut=    70.00 Ry     beta= 0.70
     Davidson diagonalization with overlap
     ethr =  1.00E-02,  avg # of iterations =  9.4

     Threshold (ethr) on eigenvalues was too large:
     Diagonalizing with lowered threshold

     Davidson diagonalization with overlap
     ethr =  8.89E-05,  avg # of iterations =  7.6

     total cpu time spent up to now is       34.0 secs

     total energy              =     -85.64172249 Ry
     estimated scf accuracy    <       0.01529031 Ry

     iteration #  2     ecut=    70.00 Ry     beta= 0.70
     Davidson diagonalization with overlap
     ethr =  8.49E-05,  avg # of iterations =  1.4

     total cpu time spent up to now is       44.2 secs

     total energy              =     -85.64279526 Ry
     estimated scf accuracy    <       0.00111447 Ry

     iteration #  3     ecut=    70.00 Ry     beta= 0.70
     Davidson diagonalization with overlap
     ethr =  6.19E-06,  avg # of iterations =  6.7

     total cpu time spent up to now is       56.9 secs

     total energy              =     -85.64296066 Ry
     estimated scf accuracy    <       0.00004660 Ry

     iteration #  4     ecut=    70.00 Ry     beta= 0.70
     Davidson diagonalization with overlap
     ethr =  2.59E-07,  avg # of iterations =  4.1

     total cpu time spent up to now is       70.0 secs

     total energy              =     -85.64298951 Ry
     estimated scf accuracy    <       0.00000267 Ry

     iteration #  5     ecut=    70.00 Ry     beta= 0.70
     Davidson diagonalization with overlap
     ethr =  1.48E-08,  avg # of iterations =  3.2

     total cpu time spent up to now is       82.3 secs

     total energy              =     -85.64299050 Ry
     estimated scf accuracy    <       0.00000024 Ry

     iteration #  6     ecut=    70.00 Ry     beta= 0.70
     Davidson diagonalization with overlap
     ethr =  1.32E-09,  avg # of iterations =  3.1

     total cpu time spent up to now is       94.4 secs

     total energy              =     -85.64299058 Ry
     estimated scf accuracy    <       0.00000001 Ry

     iteration #  7     ecut=    70.00 Ry     beta= 0.70
     Davidson diagonalization with overlap
     ethr =  6.41E-11,  avg # of iterations =  4.0

     total cpu time spent up to now is      107.6 secs

     End of self-consistent calculation

          k = 0.0000 0.0000 0.0000 (  6737 PWs)   bands (ev):

    -7.6411  -7.6411  -4.2707  -4.2707  -4.2693  -4.2693   2.7673   2.7673
     2.9825   2.9825   3.4160   3.4160   4.3687   4.3687   4.4106   4.4106
     5.2847   5.2847   6.7292   6.7292   7.3499   7.3499   7.8584   7.8584
    11.0276  11.0276  11.0293  11.0294

          k = 0.0000 0.0000 0.1259 (  6762 PWs)   bands (ev):

    -7.5395  -7.5383  -5.2202  -5.2172  -3.2915  -3.2900   2.5641   2.5730
     2.9401   3.1294   3.2180   3.6668   4.3313   4.4236   4.5047   4.5636
     5.1998   5.3057   6.6010   6.6299   7.1127   7.1970   7.5733   7.5898
    10.7046  10.7430  11.6223  11.6248

          k = 0.0000 0.0000 0.2518 (  6804 PWs)   bands (ev):

    -7.2356  -7.2333  -6.0567  -6.0532  -2.4531  -2.4495   2.1019   2.1440
     3.0970   3.1936   3.2691   3.6850   4.4534   4.5866   4.6076   4.8402
     5.0396   5.2552   6.4638   6.4846   6.7386   6.9109   7.0293   7.1065
    10.2624  10.2806  11.3701  11.4004

          k = 0.0000 0.0000-0.3778 (  6822 PWs)   bands (ev):

    -6.7367  -6.7367  -6.7335  -6.7335  -2.0861  -2.0861   1.8787   1.8787
     3.1965   3.1965   3.4834   3.4834   4.5963   4.5963   4.8204   4.8204
     5.0996   5.0996   6.5054   6.5054   6.5998   6.5998   6.8296   6.8296
    10.0810  10.0811  11.3402  11.3420

          k = 0.0000 0.1925 0.0000 (  6799 PWs)   bands (ev):

    -7.4605  -7.4601  -4.3390  -4.3331  -4.2193  -4.2150   1.7756   1.8729
     2.3517   2.5020   2.8364   3.0744   4.5983   4.7716   4.9818   5.0703
     5.2559   5.3703   6.8259   6.9110   7.0650   7.1541   7.6124   7.7149
    10.4503  10.4916  11.0439  11.0530

          k = 0.0000 0.1925 0.1259 (  6776 PWs)   bands (ev):

    -7.3602  -7.3587  -5.1615  -5.1581  -3.3949  -3.3920   1.8710   1.9468
     2.0511   2.1841   2.9332   3.1233   4.7024   4.8357   5.0128   5.2109
     5.4128   5.5064   6.6769   6.7058   6.8466   6.9854   7.4848   7.5443
    10.0387  10.0478  11.7159  11.7372

          k = 0.0000 0.1925 0.2518 (  6761 PWs)   bands (ev):

    -7.0638  -7.0610  -5.9424  -5.9384  -2.7252  -2.7206   1.7403   1.8367
     2.2137   2.3948   3.0378   3.2200   4.5051   4.5748   4.7213   4.8192
     4.9908   5.0875   6.7147   6.8269   7.0379   7.1941   7.7629   7.7759
    10.0668  10.0938  11.4988  11.5347

          k = 0.0000 0.1925-0.3778 (  6774 PWs)   bands (ev):

    -6.6028  -6.6010  -6.5640  -6.5626  -2.4805  -2.4798   1.7104   1.7941
     2.6759   2.9241   2.9944   3.1642   3.9786   4.2072   4.3052   4.4571
     4.6642   4.8613   6.8465   6.9944   7.4077   7.5494   7.9612   7.9661
    10.4972  10.5192  10.9780  11.0109

          k = 0.0000 0.3849 0.0000 (  6768 PWs)   bands (ev):

    -6.9922  -6.9915  -4.6551  -4.6495  -4.1005  -4.0964   1.0792   1.1357
     1.6648   1.8303   2.3553   2.5730   3.5731   3.6485   4.8895   5.0399
     5.1257   5.2728   6.9432   7.0473   7.1702   7.2094   8.8743   8.8906
     9.4297   9.4598  11.9961  12.0246

          k = 0.0000 0.3849 0.1259 (  6760 PWs)   bands (ev):

    -6.8947  -6.8920  -5.1359  -5.1313  -3.6621  -3.6555   0.9213   0.9497
     1.4212   1.5226   2.4731   2.6133   4.2910   4.5493   4.7626   5.0474
     5.0640   5.2674   6.8742   6.9288   7.3560   7.4657   7.9915   8.0178
     9.3602   9.4230  12.4673  12.5063

          k = 0.0000 0.3849 0.2518 (  6791 PWs)   bands (ev):

    -6.6229  -6.6179  -5.7123  -5.7058  -3.3559  -3.3494   0.7533   0.7978
     1.6625   1.7829   2.6226   2.7378   4.0119   4.1740   4.3947   4.4979
     5.8529   5.9056   6.7494   6.8225   7.3845   7.5216   7.8661   8.2158
     9.8490   9.9888  12.3730  12.4026

          k = 0.0000 0.3849-0.3778 (  6778 PWs)   bands (ev):

    -6.3018  -6.2998  -6.1160  -6.1139  -3.3244  -3.3228   0.8446   0.8863
     2.1702   2.2956   2.5253   2.6391   3.7560   3.8203   4.0545   4.1316
     5.0359   5.1297   7.3080   7.5140   7.9818   8.0908   8.3551   8.5766
    10.5284  10.6811  11.5811  11.6119

          k = 0.0000-0.5774 0.0000 (  6764 PWs)   bands (ev):

    -6.6406  -6.6406  -4.9735  -4.9735  -4.0323  -4.0323   1.0599   1.0599
     1.5576   1.5576   2.3932   2.3932   2.6042   2.6042   4.8787   4.8787
     5.1695   5.1695   6.9953   6.9953   7.1092   7.1092   9.0523   9.0523
     9.8436   9.8436  13.4025  13.4025

          k = 0.0000-0.5774 0.1259 (  6772 PWs)   bands (ev):

    -6.5649  -6.5611  -5.1365  -5.1320  -3.9819  -3.9736   1.0139   1.0541
     1.2252   1.3380   2.3119   2.4711   3.2488   3.4298   4.5149   4.6866
     4.8347   4.9176   6.9828   7.0294   7.5681   7.7992   9.2813   9.3058
     9.4218   9.5331  13.0219  13.0407

          k = 0.0000-0.5774 0.2518 (  6776 PWs)   bands (ev):

    -6.3490  -6.3422  -5.4976  -5.4896  -3.8885  -3.8812   0.4915   0.5223
     1.6697   1.7798   2.4274   2.5417   3.6691   3.9450   4.1250   4.3206
     4.8411   5.0308   7.3451   7.4488   7.9789   8.0491   8.3568   8.6916
    10.1557  10.3786  11.8724  11.8976

          k = 0.0000-0.5774-0.3778 (  6764 PWs)   bands (ev):

    -6.1272  -6.1272  -5.7751  -5.7751  -3.8422  -3.8422   0.3032   0.3032
     2.1955   2.1955   2.3247   2.3247   3.6160   3.6160   3.9846   3.9846
     5.8790   5.8790   6.8489   6.8489   7.8944   7.8944   8.7361   8.7361
    10.6354  10.6354  11.4515  11.4515

          k = 0.1667 0.2887 0.0000 (  6745 PWs)   bands (ev):

    -7.1316  -7.1309  -4.4764  -4.4659  -4.2085  -4.1997   1.2687   1.3849
     1.5364   1.6466   2.9042   3.0686   4.0839   4.2412   4.3789   4.4483
     4.8496   4.8976   7.5839   7.6228   7.6732   7.7091   8.0240   8.0396
    10.3067  10.3127  10.5930  10.5965

          k = 0.1667 0.2887 0.1259 (  6761 PWs)   bands (ev):

    -7.0390  -7.0368  -5.0572  -5.0530  -3.6945  -3.6890   1.2745   1.3383
     1.7081   1.7679   2.8092   2.9468   3.6505   3.7439   4.4204   4.5381
     5.4838   5.5494   6.9582   7.0268   7.7091   7.7541   8.3321   8.3656
    10.2835  10.3147  10.9091  10.9484

          k = 0.1667 0.2887 0.2518 (  6782 PWs)   bands (ev):

    -6.7647  -6.7607  -5.7317  -5.7264  -3.2484  -3.2424   1.2858   1.3791
     1.7992   1.9350   2.6460   2.7609   3.3474   3.5289   4.8780   5.0033
     5.2387   5.3538   6.8902   6.9425   7.7163   7.7292   8.5184   8.5737
    10.4735  10.4946  11.7037  11.7237

          k = 0.1667 0.2887-0.3778 (  6774 PWs)   bands (ev):

    -6.3661  -6.3630  -6.2688  -6.2657  -3.0799  -3.0783   1.2647   1.3625
     2.0904   2.1016   2.2164   2.3208   3.9291   4.0904   4.4987   4.5326
     5.1872   5.2723   6.7947   6.8739   8.1845   8.2009   8.3942   8.4171
    10.6739  10.7152  11.2928  11.2978

          k = 0.1667 0.4811 0.0000 (  6777 PWs)   bands (ev):

    -6.6669  -6.6661  -4.7888  -4.7825  -4.2273  -4.2217   1.1293   1.2023
     1.4018   1.5113   2.4822   2.6798   2.9899   3.1111   4.0246   4.1132
     4.2688   4.3097   7.8194   7.8564   8.1819   8.1956   9.3276   9.3382
     9.9173   9.9360  11.7428  11.7638

          k = 0.1667 0.4811 0.1259 (  6768 PWs)   bands (ev):

    -6.5820  -6.5782  -5.0922  -5.0868  -3.9979  -3.9888   0.8554   0.8887
     1.3659   1.4696   2.3990   2.5308   3.2177   3.3849   4.1029   4.2360
     4.9236   5.0455   7.3769   7.4396   8.4119   8.4436   8.5711   8.6383
    10.0681  10.1244  11.9392  11.9624

          k = 0.1667 0.4811 0.2518 (  6777 PWs)   bands (ev):

    -6.3449  -6.3378  -5.5390  -5.5305  -3.7980  -3.7900   0.5864   0.6295
     1.3382   1.4141   2.1334   2.2065   3.4709   3.5975   5.0392   5.2450
     5.6178   5.8704   6.7602   6.8197   7.5183   7.5886   8.5878   8.7037
    10.3907  10.4712  12.4069  12.4632

          k = 0.1667 0.4811-0.3778 (  6786 PWs)   bands (ev):

    -6.0788  -6.0764  -5.8637  -5.8607  -3.7531  -3.7514   0.5725   0.6003
     1.5173   1.5460   1.6613   1.7434   4.3212   4.4237   4.8137   4.8525
     5.6411   5.7127   6.9634   7.0678   7.6401   7.7050   8.2660   8.3154
    10.8687  10.9051  11.7978  11.8131

          k = 0.3333 0.5774 0.0000 (  6819 PWs)   bands (ev):

    -6.4717  -6.4717  -4.6101  -4.6070  -4.6070  -4.5951   1.2721   1.4602
     1.4602   1.4759   2.8160   2.8160   2.9103   3.1136   3.1136   3.1423
     3.5003   3.5003   8.8244   8.8661   9.0332   9.0332   9.2830   9.2830
    10.8967  10.8967  11.9124  11.9125

          k = 0.3333 0.5774 0.1259 (  6801 PWs)   bands (ev):

    -6.3981  -6.3934  -5.0047  -5.0009  -4.2740  -4.2636   0.9666   0.9816
     1.3575   1.5247   2.1727   2.2814   2.9055   3.0896   3.9195   3.9626
     4.3036   4.4978   8.3061   8.4629   8.7559   8.8786   8.8903   8.9189
    11.0946  11.1436  11.6775  11.7381

          k = 0.3333 0.5774 0.2518 (  6756 PWs)   bands (ev):

    -6.1809  -6.1722  -5.4353  -5.4259  -4.0337  -4.0246   0.7763   0.8315
     0.9485   1.0091   1.4305   1.5423   3.9634   4.0950   5.0162   5.1713
     5.3633   5.6553   7.1905   7.3039   7.9874   8.0793   8.1916   8.2195
    11.7090  11.7385  11.7445  11.7635

          k = 0.3333 0.5774-0.3778 (  6738 PWs)   bands (ev):

    -5.8455  -5.8455  -5.8384  -5.8311  -3.9387  -3.9387   0.7685   0.7685
     0.9175   0.9709   1.0443   1.0443   4.9003   4.9003   5.8766   5.8766
     6.1274   6.2633   6.2633   6.2666   7.3984   7.4630   7.6306   7.6306
    11.9408  11.9411  12.6176  12.6453

          k = 0.0000 0.1925-0.1259 (  6776 PWs)   bands (ev):

    -7.3629  -7.3614  -5.1335  -5.1302  -3.4534  -3.4505   1.8486   1.9382
     2.5666   2.7570   2.8481   3.2049   4.3028   4.3558   4.4470   4.6298
     4.8718   5.0624   7.0727   7.1758   7.4624   7.5879   7.8574   7.9595
    10.7378  10.7791  11.0721  11.1093

          k = 0.0000 0.1925-0.2518 (  6761 PWs)   bands (ev):

    -7.0696  -7.0668  -5.9251  -5.9211  -2.7776  -2.7730   1.8695   1.9396
     2.6849   2.8479   3.1080   3.3523   3.7878   4.0120   4.2155   4.3060
     4.6939   4.8448   7.0932   7.1363   7.7173   7.8065   7.8761   7.9389
    10.6799  10.6982  11.3395  11.3587

          k = 0.0000 0.3849-0.1259 (  6760 PWs)   bands (ev):

    -6.9120  -6.9096  -4.9733  -4.9693  -3.9209  -3.9145   1.3576   1.4726
     1.8493   1.9711   2.5848   2.8179   2.8467   3.0753   4.4168   4.6737
     4.8568   5.0250   7.0658   7.1722   7.7553   8.0020   9.2781   9.2916
    10.0278  10.1442  11.8368  11.8523

          k = 0.0000 0.3849-0.2518 (  6791 PWs)   bands (ev):

    -6.6608  -6.6565  -5.6001  -5.5946  -3.5475  -3.5412   1.2286   1.3033
     1.9951   2.1548   2.5942   2.7370   3.3550   3.7148   3.9659   4.1292
     4.4683   4.6920   7.4852   7.5461   8.3057   8.4741   8.9689   8.9831
    10.6621  10.7759  11.5529  11.5704

          k =-0.1667 0.4811-0.1259 (  6768 PWs)   bands (ev):

    -6.5930  -6.5893  -5.0057  -5.0007  -4.1127  -4.1034   1.0482   1.0998
     1.4559   1.5309   2.4378   2.6029   2.8586   3.2356   3.6933   3.8876
     5.1562   5.2198   7.2355   7.2935   8.2937   8.3488   9.3828   9.4070
    10.1748  10.2321  11.7889  11.7996

          k =-0.1667 0.4811-0.2518 (  6777 PWs)   bands (ev):

    -6.3683  -6.3619  -5.4718  -5.4643  -3.8815  -3.8736   0.8390   0.9131
     1.2350   1.3018   2.0897   2.1643   3.5884   3.7972   4.4980   4.6382
     5.4130   5.5442   7.0234   7.0503   8.1666   8.2383   8.6748   8.7164
    10.6489  10.6960  11.7696  11.7951

     the Fermi energy is     6.2335 ev

!    total energy              =     -85.64299059 Ry
     estimated scf accuracy    <          2.4E-09 Ry
     smearing contrib. (-TS)   =      -0.00009204 Ry
     internal energy E=F+TS    =     -85.64289855 Ry

     The total energy is F=E-TS. E is the sum of the following terms:
     one-electron contribution =      10.26060244 Ry
     hartree contribution      =       3.36329514 Ry
     xc contribution           =     -49.71305821 Ry
     ewald contribution        =     -49.55373792 Ry

     convergence has been achieved in   7 iterations

     Writing all to output data dir /home/user/workspace/qe_runs/strain_hc2_clamp_m0050/out/tehc2clamp_m0050.save/ :
     XML data file, charge density, pseudopotentials, collected wavefunctions

     init_run     :      3.82s CPU      4.27s WALL (       1 calls)
     electrons    :     96.85s CPU    103.23s WALL (       1 calls)

     Called by init_run:
     wfcinit      :      2.51s CPU      2.65s WALL (       1 calls)
     potinit      :      0.21s CPU      0.24s WALL (       1 calls)
     hinit0       :      0.50s CPU      0.51s WALL (       1 calls)

     Called by electrons:
     c_bands      :     75.12s CPU     76.67s WALL (       8 calls)
     sum_band     :     17.06s CPU     20.16s WALL (       8 calls)
     v_of_rho     :      0.48s CPU      0.50s WALL (       8 calls)
     newd         :      4.50s CPU      6.45s WALL (       8 calls)
     mix_rho      :      0.19s CPU      0.20s WALL (       8 calls)

     Called by c_bands:
     init_us_2    :      0.97s CPU      0.98s WALL (     578 calls)
     cegterg      :     64.94s CPU     66.43s WALL (     272 calls)

     Called by *egterg:
     cdiaghg      :      1.32s CPU      1.34s WALL (    1582 calls)
     h_psi        :     53.52s CPU     54.99s WALL (    1650 calls)
     s_psi        :      2.79s CPU      2.82s WALL (    1650 calls)
     g_psi        :      0.52s CPU      0.52s WALL (    1344 calls)

     Called by h_psi:
     h_psi:calbec :      3.39s CPU      3.47s WALL (    1650 calls)
     vloc_psi     :     47.09s CPU     48.45s WALL (    1650 calls)
                                        0.00s GPU  (    1650 calls)
     add_vuspsi   :      2.71s CPU      2.73s WALL (    1650 calls)

     General routines
     calbec       :      4.36s CPU      4.45s WALL (    1922 calls)
     fft          :      0.51s CPU      0.53s WALL (     190 calls)
     ffts         :      0.15s CPU      0.16s WALL (      64 calls)
     fftw         :     49.09s CPU     50.51s WALL (  107140 calls)
     interpolate  :      0.20s CPU      0.21s WALL (      32 calls)

     Parallel routines

     PWSCF        :   1m40.83s CPU   1m47.87s WALL


   This run was terminated on:  15:24:43  20Aug2026            

=------------------------------------------------------------------------------=
   JOB DONE.
=------------------------------------------------------------------------------=
