
     Program PWSCF v.7.5 starts on 20Aug2026 at 15:38:59 

     This program is part of the open-source Quantum ESPRESSO suite
     for quantum simulation of materials; please cite
         "P. Giannozzi et al., J. Phys.:Condens. Matter 21 395502 (2009);
         "P. Giannozzi et al., J. Phys.:Condens. Matter 29 465901 (2017);
         "P. Giannozzi et al., J. Chem. Phys. 152 154105 (2020);
          URL http://www.quantum-espresso.org", 
     in publications or presentations arising from this work. More details at
     http://www.quantum-espresso.org/quote

     Parallel version (MPI & OpenMP), running on       2 processor cores
     Number of MPI processes:                 2
     Threads/MPI process:                     1

     MPI processes distributed on     1 nodes
     1916 MiB available memory on the printing compute node when the environment starts

     Reading input from strain_hc2b_pois_p0050/bands.in

     Current dimensions of program PWSCF are:
     Max number of different atomic species (ntypx) = 10
     Max number of k-points (npk) =  40000
     Max angular momentum in pseudopotentials (lmaxx) =  4
     file Te.rel-pbe-n-rrkjus_psl.1.0.0.UPF: wavefunction(s)  5S renormalized

     Atomic positions and unit cell read from directory:
     /home/user/workspace/qe_runs/strain_hc2b_pois_p0050/out/tehc2bpois_p0050.save/

     Message from routine setup:
     using ibrav=0 with symmetry is DISCOURAGED, use correct ibrav instead

     R & G space division:  proc/nbgrp/npool/nimage =       2
     Subspace diagonalization in iterative solution of the eigenvalue problem:
     a serial algorithm will be used


     Parallelization info
     --------------------
     sticks:   dense  smooth     PW     G-vecs:    dense   smooth      PW
     Min        1356     684    198                76916    27226    4252
     Max        1357     685    199                76925    27229    4253
     Sum        2713    1369    397               153841    54455    8505

     Using Slab Decomposition



     bravais-lattice index     =            0
     lattice parameter (alat)  =       8.3965  a.u.
     unit-cell volume          =     687.5018 (a.u.)^3
     number of atoms/cell      =            3
     number of atomic types    =            1
     number of electrons       =        18.00
     number of Kohn-Sham states=           28
     kinetic-energy cutoff     =      70.0000  Ry
     charge density cutoff     =     560.0000  Ry
     Exchange-correlation= PBE
                           (   1   4   3   4   0   0   0)
     Non magnetic calculation with spin-orbit


     celldm(1)=   8.396503  celldm(2)=   0.000000  celldm(3)=   0.000000
     celldm(4)=   0.000000  celldm(5)=   0.000000  celldm(6)=   0.000000

     crystal axes: (cart. coord. in units of alat)
               a(1) = (   1.000000   0.000000   0.000000 )  
               a(2) = (  -0.500000   0.866025   0.000000 )  
               a(3) = (   0.000000   0.000000   1.341059 )  

     reciprocal axes: (cart. coord. in units 2 pi/alat)
               b(1) = (  1.000000  0.577350 -0.000000 )  
               b(2) = (  0.000000  1.154701  0.000000 )  
               b(3) = (  0.000000 -0.000000  0.745679 )  


     PseudoPot. # 1 for Te read from file:
     /home/user/workspace/qe_runs/pseudo/Te.rel-pbe-n-rrkjus_psl.1.0.0.UPF
     MD5 check sum: 7fd30b6833abd190471e4dcc2367351b
     Pseudo is Ultrasoft + core correction, Zval =  6.0
     Generated using &quot;atomic&quot; code by A. Dal Corso  v.6.3
     Using radial grid of 1245 points, 10 beta functions with: 
                l(1) =   0
                l(2) =   0
                l(3) =   1
                l(4) =   1
                l(5) =   1
                l(6) =   1
                l(7) =   2
                l(8) =   2
                l(9) =   2
               l(10) =   2
     Q(r) pseudized with 0 coefficients 


     atomic species   valence    mass     pseudopotential
     Te                6.00   127.60000     Te( 1.00)

      6 Sym. Ops. (no inversion) found ( 4 have fractional translation)



   Cartesian axes

     site n.     atom                  positions (alat units)
         1        Te     tau(   1) = (   0.2636000   0.0000000   0.4470197  )
         2        Te     tau(   2) = (  -0.1318000   0.2282843   0.8940395  )
         3        Te     tau(   3) = (  -0.1318000  -0.2282843   0.0000000  )

     number of k points=     7  Gaussian smearing, width (Ry)=  0.0100
                       cart. coord. in units 2pi/alat
        k(    1) = (   0.3333333   0.5773502   0.0000000), wk =   0.1428571
        k(    2) = (   0.3333333   0.5773502   0.1491358), wk =   0.1428571
        k(    3) = (   0.3333333   0.5773502   0.2982717), wk =   0.1428571
        k(    4) = (   0.3333333   0.5773502   0.3728396), wk =   0.1428571
        k(    5) = (   0.3333333   0.5773502   0.4474075), wk =   0.1428571
        k(    6) = (   0.3333333   0.5773502   0.5965434), wk =   0.1428571
        k(    7) = (   0.0000000   0.0000000   0.3728396), wk =   0.1428571

     Dense  grid:   153841 G-vectors     FFT dimensions: (  64,  64,  90)

     Smooth grid:    54455 G-vectors     FFT dimensions: (  45,  45,  60)

     Estimated max dynamical RAM per process >     783.04 MB

     Estimated total dynamical RAM >       1.53 GB

     The potential is recalculated from file :
     /home/user/workspace/qe_runs/strain_hc2b_pois_p0050/out/tehc2bpois_p0050.save/charge-density

     Starting wfcs are   24 randomized atomic wfcs +    4 random wfcs

     Band Structure Calculation
     Davidson diagonalization with overlap
     c_bands:  2 eigenvalues not converged

     ethr =  5.56E-11,  avg # of iterations = 66.7

     total cpu time spent up to now is       21.7 secs

     End of band structure calculation

          k = 0.3333 0.5774 0.0000 (  6807 PWs)   bands (ev):

    -6.4664  -6.4664  -4.6446  -4.6415  -4.6415  -4.6300   1.2430   1.4286
     1.4286   1.4443   2.7641   2.7641   2.8613   3.0666   3.0666   3.0902
     3.4439   3.4439   8.7522   8.7924   8.9586   8.9586   9.2093   9.2093
    10.9192  10.9192  11.9128  11.9128

          k = 0.3333 0.5774 0.1491 (  6843 PWs)   bands (ev):

    -6.3632  -6.3577  -5.1170  -5.1119  -4.2571  -4.2468   0.8855   0.9140
     1.2436   1.3895   1.9746   2.0890   3.0100   3.1903   4.0689   4.1305
     4.4567   4.6633   8.0087   8.1538   8.6035   8.6600   8.6679   8.7383
    11.1971  11.2487  11.6732  11.7077

          k = 0.3333 0.5774 0.2983 (  6795 PWs)   bands (ev):

    -6.0644  -6.0549  -5.6216  -5.6115  -4.0198  -4.0140   0.7893   0.7909
     0.8496   0.8919   1.1848   1.2909   4.3565   4.4615   5.3605   5.5687
     5.6262   5.9818   6.5696   6.6661   7.5302   7.6937   7.7907   7.8287
    11.8350  11.8562  12.0288  12.0749

          k = 0.3333 0.5774 0.3728 (  6768 PWs)   bands (ev):

    -5.8564  -5.8564  -5.8497  -5.8424  -3.9844  -3.9844   0.7531   0.7531
     0.9049   0.9583   1.0316   1.0316   4.8188   4.8188   5.8036   5.8036
     6.0529   6.1362   6.1362   6.1967   7.3120   7.3834   7.5383   7.5383
    11.9346  11.9346  12.5603  12.5678

          k = 0.3333 0.5774 0.4474 (  6795 PWs)   bands (ev):

    -6.0644  -6.0549  -5.6216  -5.6115  -4.0198  -4.0140   0.7893   0.7909
     0.8496   0.8919   1.1848   1.2909   4.3565   4.4615   5.3605   5.5687
     5.6262   5.9818   6.5696   6.6661   7.5302   7.6937   7.7907   7.8287
    11.8350  11.8562  12.0288  12.0749

          k = 0.3333 0.5774 0.5965 (  6843 PWs)   bands (ev):

    -6.3632  -6.3577  -5.1170  -5.1119  -4.2571  -4.2468   0.8855   0.9140
     1.2436   1.3895   1.9746   2.0890   3.0100   3.1903   4.0689   4.1305
     4.4567   4.6633   8.0087   8.1538   8.6035   8.6600   8.6679   8.7383
    11.1971  11.2487  11.6732  11.7077

          k = 0.0000 0.0000 0.3728 (  6822 PWs)   bands (ev):

    -6.7583  -6.7583  -6.7553  -6.7553  -2.1662  -2.1662   1.8105   1.8105
     3.2062   3.2062   3.4979   3.4979   4.5688   4.5688   4.8204   4.8204
     5.1053   5.1053   6.4694   6.4694   6.5938   6.5938   6.8123   6.8123
    10.0089  10.0089  11.3494  11.3494

     Writing all to output data dir /home/user/workspace/qe_runs/strain_hc2b_pois_p0050/out/tehc2bpois_p0050.save/ :
     XML data file, pseudopotentials, collected wavefunctions

     init_run     :      1.34s CPU      1.64s WALL (       1 calls)
     electrons    :     19.40s CPU     19.91s WALL (       1 calls)

     Called by init_run:
     wfcinit      :      0.00s CPU      0.00s WALL (       1 calls)
     potinit      :      0.20s CPU      0.22s WALL (       1 calls)
     hinit0       :      0.52s CPU      0.54s WALL (       1 calls)

     Called by electrons:
     c_bands      :     19.40s CPU     19.91s WALL (       1 calls)
     v_of_rho     :      0.06s CPU      0.08s WALL (       1 calls)
     newd         :      0.57s CPU      0.83s WALL (       1 calls)

     Called by c_bands:
     init_us_2    :      0.01s CPU      0.01s WALL (       7 calls)
     cegterg      :     18.63s CPU     19.11s WALL (      26 calls)

     Called by *egterg:
     cdiaghg      :      0.41s CPU      0.42s WALL (     474 calls)
     h_psi        :     14.55s CPU     15.01s WALL (     500 calls)
     s_psi        :      0.78s CPU      0.78s WALL (     500 calls)
     g_psi        :      0.19s CPU      0.19s WALL (     467 calls)

     Called by h_psi:
     h_psi:calbec :      0.94s CPU      0.98s WALL (     500 calls)
     vloc_psi     :     12.78s CPU     13.18s WALL (     500 calls)
                                        0.00s GPU  (     500 calls)
     add_vuspsi   :      0.75s CPU      0.77s WALL (     500 calls)

     General routines
     calbec       :      0.94s CPU      0.98s WALL (     500 calls)
     fft          :      0.20s CPU      0.21s WALL (      19 calls)
     ffts         :      0.11s CPU      0.11s WALL (       4 calls)
     fftw         :     11.50s CPU     11.87s WALL (   24244 calls)
     interpolate  :      0.12s CPU      0.12s WALL (       4 calls)
     davcio       :      0.01s CPU      0.02s WALL (      14 calls)

     Parallel routines

     PWSCF        :     20.91s CPU     25.90s WALL


   This run was terminated on:  15:39:25  20Aug2026            

=------------------------------------------------------------------------------=
   JOB DONE.
=------------------------------------------------------------------------------=
