
     Program PWSCF v.7.5 starts on 20Aug2026 at 15:37: 4 

     This program is part of the open-source Quantum ESPRESSO suite
     for quantum simulation of materials; please cite
         "P. Giannozzi et al., J. Phys.:Condens. Matter 21 395502 (2009);
         "P. Giannozzi et al., J. Phys.:Condens. Matter 29 465901 (2017);
         "P. Giannozzi et al., J. Chem. Phys. 152 154105 (2020);
          URL http://www.quantum-espresso.org", 
     in publications or presentations arising from this work. More details at
     http://www.quantum-espresso.org/quote

     Parallel version (MPI & OpenMP), running on       2 processor cores
     Number of MPI processes:                 2
     Threads/MPI process:                     1

     MPI processes distributed on     1 nodes
     1880 MiB available memory on the printing compute node when the environment starts

     Reading input from strain_hc2b_pois_p0050/scf.in

     Current dimensions of program PWSCF are:
     Max number of different atomic species (ntypx) = 10
     Max number of k-points (npk) =  40000
     Max angular momentum in pseudopotentials (lmaxx) =  4
     file Te.rel-pbe-n-rrkjus_psl.1.0.0.UPF: wavefunction(s)  5S renormalized
     Message from routine setup:
     using ibrav=0 with symmetry is DISCOURAGED, use correct ibrav instead

     R & G space division:  proc/nbgrp/npool/nimage =       2
     Subspace diagonalization in iterative solution of the eigenvalue problem:
     a serial algorithm will be used


     Parallelization info
     --------------------
     sticks:   dense  smooth     PW     G-vecs:    dense   smooth      PW
     Min        1356     684    189                76916    27226    4127
     Max        1357     685    190                76925    27229    4132
     Sum        2713    1369    379               153841    54455    8259

     Using Slab Decomposition



     bravais-lattice index     =            0
     lattice parameter (alat)  =       8.3965  a.u.
     unit-cell volume          =     687.5018 (a.u.)^3
     number of atoms/cell      =            3
     number of atomic types    =            1
     number of electrons       =        18.00
     number of Kohn-Sham states=           28
     kinetic-energy cutoff     =      70.0000  Ry
     charge density cutoff     =     560.0000  Ry
     scf convergence threshold =      1.0E-08
     mixing beta               =       0.7000
     number of iterations used =            8  plain     mixing
     Exchange-correlation= PBE
                           (   1   4   3   4   0   0   0)
     Non magnetic calculation with spin-orbit


     celldm(1)=   8.396503  celldm(2)=   0.000000  celldm(3)=   0.000000
     celldm(4)=   0.000000  celldm(5)=   0.000000  celldm(6)=   0.000000

     crystal axes: (cart. coord. in units of alat)
               a(1) = (   1.000000   0.000000   0.000000 )  
               a(2) = (  -0.500000   0.866025   0.000000 )  
               a(3) = (   0.000000   0.000000   1.341059 )  

     reciprocal axes: (cart. coord. in units 2 pi/alat)
               b(1) = (  1.000000  0.577350 -0.000000 )  
               b(2) = (  0.000000  1.154701  0.000000 )  
               b(3) = (  0.000000 -0.000000  0.745679 )  


     PseudoPot. # 1 for Te read from file:
     /home/user/workspace/qe_runs/pseudo/Te.rel-pbe-n-rrkjus_psl.1.0.0.UPF
     MD5 check sum: 7fd30b6833abd190471e4dcc2367351b
     Pseudo is Ultrasoft + core correction, Zval =  6.0
     Generated using &quot;atomic&quot; code by A. Dal Corso  v.6.3
     Using radial grid of 1245 points, 10 beta functions with: 
                l(1) =   0
                l(2) =   0
                l(3) =   1
                l(4) =   1
                l(5) =   1
                l(6) =   1
                l(7) =   2
                l(8) =   2
                l(9) =   2
               l(10) =   2
     Q(r) pseudized with 0 coefficients 


     atomic species   valence    mass     pseudopotential
     Te                6.00   127.60000     Te( 1.00)

      6 Sym. Ops. (no inversion) found ( 4 have fractional translation)



   Cartesian axes

     site n.     atom                  positions (alat units)
         1        Te     tau(   1) = (   0.2636000   0.0000000   0.4470197  )
         2        Te     tau(   2) = (  -0.1318000   0.2282843   0.8940395  )
         3        Te     tau(   3) = (  -0.1318000  -0.2282843   0.0000000  )

     number of k points=    34  Gaussian smearing, width (Ry)=  0.0100
                       cart. coord. in units 2pi/alat
        k(    1) = (   0.0000000   0.0000000   0.0000000), wk =   0.0046296
        k(    2) = (   0.0000000   0.0000000   0.1242799), wk =   0.0092593
        k(    3) = (   0.0000000   0.0000000   0.2485597), wk =   0.0092593
        k(    4) = (   0.0000000   0.0000000  -0.3728396), wk =   0.0046296
        k(    5) = (   0.0000000   0.1924501   0.0000000), wk =   0.0277778
        k(    6) = (   0.0000000   0.1924501   0.1242799), wk =   0.0277778
        k(    7) = (   0.0000000   0.1924501   0.2485597), wk =   0.0277778
        k(    8) = (   0.0000000   0.1924501  -0.3728396), wk =   0.0277778
        k(    9) = (   0.0000000   0.3849002   0.0000000), wk =   0.0277778
        k(   10) = (   0.0000000   0.3849002   0.1242799), wk =   0.0277778
        k(   11) = (   0.0000000   0.3849002   0.2485597), wk =   0.0277778
        k(   12) = (   0.0000000   0.3849002  -0.3728396), wk =   0.0277778
        k(   13) = (   0.0000000  -0.5773503   0.0000000), wk =   0.0138889
        k(   14) = (   0.0000000  -0.5773503   0.1242799), wk =   0.0277778
        k(   15) = (   0.0000000  -0.5773503   0.2485597), wk =   0.0277778
        k(   16) = (   0.0000000  -0.5773503  -0.3728396), wk =   0.0138889
        k(   17) = (   0.1666667   0.2886751   0.0000000), wk =   0.0277778
        k(   18) = (   0.1666667   0.2886751   0.1242799), wk =   0.0555556
        k(   19) = (   0.1666667   0.2886751   0.2485597), wk =   0.0555556
        k(   20) = (   0.1666667   0.2886751  -0.3728396), wk =   0.0277778
        k(   21) = (   0.1666667   0.4811252   0.0000000), wk =   0.0555556
        k(   22) = (   0.1666667   0.4811252   0.1242799), wk =   0.0555556
        k(   23) = (   0.1666667   0.4811252   0.2485597), wk =   0.0555556
        k(   24) = (   0.1666667   0.4811252  -0.3728396), wk =   0.0555556
        k(   25) = (   0.3333333   0.5773503   0.0000000), wk =   0.0092593
        k(   26) = (   0.3333333   0.5773503   0.1242799), wk =   0.0185185
        k(   27) = (   0.3333333   0.5773503   0.2485597), wk =   0.0185185
        k(   28) = (   0.3333333   0.5773503  -0.3728396), wk =   0.0092593
        k(   29) = (   0.0000000   0.1924501  -0.1242799), wk =   0.0277778
        k(   30) = (   0.0000000   0.1924501  -0.2485597), wk =   0.0277778
        k(   31) = (   0.0000000   0.3849002  -0.1242799), wk =   0.0277778
        k(   32) = (   0.0000000   0.3849002  -0.2485597), wk =   0.0277778
        k(   33) = (  -0.1666667   0.4811252  -0.1242799), wk =   0.0555556
        k(   34) = (  -0.1666667   0.4811252  -0.2485597), wk =   0.0555556

     Dense  grid:   153841 G-vectors     FFT dimensions: (  64,  64,  90)

     Smooth grid:    54455 G-vectors     FFT dimensions: (  45,  45,  60)

     Estimated max dynamical RAM per process >     967.23 MB

     Estimated total dynamical RAM >       1.89 GB

     Initial potential from superposition of free atoms

     starting charge      17.9993, renormalised to      18.0000
     Starting wfcs are   24 randomized atomic wfcs +    4 random wfcs

     total cpu time spent up to now is        4.6 secs

     per-process dynamical memory:   193.3 Mb

     Self-consistent Calculation

     iteration #  1     ecut=    70.00 Ry     beta= 0.70
     Davidson diagonalization with overlap
     ethr =  1.00E-02,  avg # of iterations =  9.1

     Threshold (ethr) on eigenvalues was too large:
     Diagonalizing with lowered threshold

     Davidson diagonalization with overlap
     ethr =  8.82E-05,  avg # of iterations =  8.3

     total cpu time spent up to now is       36.1 secs

     total energy              =     -85.64258115 Ry
     estimated scf accuracy    <       0.01519975 Ry

     iteration #  2     ecut=    70.00 Ry     beta= 0.70
     Davidson diagonalization with overlap
     ethr =  8.44E-05,  avg # of iterations =  1.4

     total cpu time spent up to now is       47.0 secs

     total energy              =     -85.64365787 Ry
     estimated scf accuracy    <       0.00110106 Ry

     iteration #  3     ecut=    70.00 Ry     beta= 0.70
     Davidson diagonalization with overlap
     ethr =  6.12E-06,  avg # of iterations =  5.5

     total cpu time spent up to now is       59.8 secs

     total energy              =     -85.64382229 Ry
     estimated scf accuracy    <       0.00004465 Ry

     iteration #  4     ecut=    70.00 Ry     beta= 0.70
     Davidson diagonalization with overlap
     ethr =  2.48E-07,  avg # of iterations =  4.7

     total cpu time spent up to now is       74.1 secs

     total energy              =     -85.64385515 Ry
     estimated scf accuracy    <       0.00000328 Ry

     iteration #  5     ecut=    70.00 Ry     beta= 0.70
     Davidson diagonalization with overlap
     ethr =  1.82E-08,  avg # of iterations =  2.7

     total cpu time spent up to now is       86.6 secs

     total energy              =     -85.64385599 Ry
     estimated scf accuracy    <       0.00000035 Ry

     iteration #  6     ecut=    70.00 Ry     beta= 0.70
     Davidson diagonalization with overlap
     ethr =  1.96E-09,  avg # of iterations =  2.9

     total cpu time spent up to now is       98.7 secs

     total energy              =     -85.64385608 Ry
     estimated scf accuracy    <       0.00000001 Ry

     iteration #  7     ecut=    70.00 Ry     beta= 0.70
     Davidson diagonalization with overlap
     ethr =  6.47E-11,  avg # of iterations =  4.5

     total cpu time spent up to now is      113.9 secs

     End of self-consistent calculation

          k = 0.0000 0.0000 0.0000 (  6821 PWs)   bands (ev):

    -7.6461  -7.6461  -4.3315  -4.3315  -4.3301  -4.3301   2.7856   2.7856
     2.9749   2.9749   3.4097   3.4097   4.3606   4.3606   4.4134   4.4134
     5.2690   5.2690   6.6623   6.6623   7.2763   7.2763   7.8451   7.8451
    10.9702  10.9703  10.9725  10.9726

          k = 0.0000 0.0000 0.1243 (  6828 PWs)   bands (ev):

    -7.5464  -7.5453  -5.2673  -5.2644  -3.3636  -3.3622   2.5415   2.5471
     2.9639   3.1292   3.2229   3.6719   4.3152   4.4307   4.4982   4.5644
     5.1847   5.2930   6.5506   6.5706   7.0503   7.1390   7.5668   7.5811
    10.6328  10.6704  11.5558  11.5595

          k = 0.0000 0.0000 0.2486 (  6822 PWs)   bands (ev):

    -7.2482  -7.2460  -6.0901  -6.0868  -2.5317  -2.5283   2.0455   2.0871
     3.1085   3.2140   3.2768   3.6952   4.4299   4.5880   4.5939   4.8477
     5.0299   5.2505   6.4391   6.4410   6.6961   6.8741   7.0290   7.1003
    10.1907  10.2095  11.3780  11.4095

          k = 0.0000 0.0000-0.3728 (  6822 PWs)   bands (ev):

    -6.7583  -6.7583  -6.7553  -6.7553  -2.1663  -2.1663   1.8105   1.8105
     3.2062   3.2062   3.4979   3.4979   4.5689   4.5689   4.8204   4.8204
     5.1054   5.1054   6.4693   6.4693   6.5938   6.5938   6.8123   6.8123
    10.0089  10.0090  11.3501  11.3529

          k = 0.0000 0.1925 0.0000 (  6781 PWs)   bands (ev):

    -7.4643  -7.4640  -4.3924  -4.3868  -4.2767  -4.2726   1.7702   1.8651
     2.3373   2.4849   2.8463   3.0787   4.5821   4.7515   4.9566   5.0484
     5.2292   5.3450   6.7660   6.8450   6.9966   7.0805   7.5915   7.6898
    10.4131  10.4525  11.0164  11.0265

          k = 0.0000 0.1925 0.1243 (  6789 PWs)   bands (ev):

    -7.3659  -7.3645  -5.2052  -5.2021  -3.4590  -3.4564   1.8674   1.9441
     2.0245   2.1529   2.9444   3.1286   4.6875   4.8175   5.0017   5.1951
     5.3774   5.4734   6.6081   6.6330   6.8035   6.9412   7.4493   7.5115
    10.0145  10.0227  11.6734  11.6910

          k = 0.0000 0.1925 0.2486 (  6783 PWs)   bands (ev):

    -7.0750  -7.0724  -5.9739  -5.9701  -2.7920  -2.7877   1.7064   1.7940
     2.2137   2.3791   3.0452   3.2252   4.4747   4.5539   4.6837   4.7969
     4.9641   5.0707   6.6759   6.7824   7.0197   7.1699   7.7150   7.7291
    10.0384  10.0651  11.4474  11.4814

          k = 0.0000 0.1925-0.3728 (  6788 PWs)   bands (ev):

    -6.6230  -6.6212  -6.5844  -6.5829  -2.5466  -2.5458   1.6673   1.7445
     2.6729   2.9106   2.9941   3.1712   3.9346   4.1710   4.2829   4.4376
     4.6487   4.8457   6.8105   6.9472   7.4006   7.5283   7.9274   7.9355
    10.4455  10.4676  10.9581  10.9908

          k = 0.0000 0.3849 0.0000 (  6758 PWs)   bands (ev):

    -6.9926  -6.9919  -4.6928  -4.6874  -4.1505  -4.1466   1.0499   1.1054
     1.6366   1.7938   2.3619   2.5725   3.5220   3.5962   4.8575   5.0055
     5.0900   5.2367   6.8717   6.9808   7.1157   7.1537   8.7902   8.8081
     9.3958   9.4248  12.0178  12.0467

          k = 0.0000 0.3849 0.1243 (  6783 PWs)   bands (ev):

    -6.8967  -6.8942  -5.1709  -5.1666  -3.7123  -3.7061   0.9030   0.9306
     1.3823   1.4774   2.4832   2.6183   4.2463   4.4990   4.7310   5.0037
     5.0227   5.2083   6.8057   6.8751   7.3107   7.4070   7.8972   7.9251
     9.3302   9.3914  12.4618  12.5015

          k = 0.0000 0.3849 0.2486 (  6810 PWs)   bands (ev):

    -6.6302  -6.6255  -5.7386  -5.7324  -3.4059  -3.3998   0.7405   0.7845
     1.6228   1.7377   2.6276   2.7419   3.9808   4.1398   4.3694   4.4663
     5.7654   5.8184   6.6553   6.7191   7.3205   7.4521   7.8333   8.1654
     9.8032   9.9423  12.2929  12.3214

          k = 0.0000 0.3849-0.3728 (  6810 PWs)   bands (ev):

    -6.3182  -6.3163  -6.1320  -6.1299  -3.3735  -3.3719   0.8312   0.8727
     2.1383   2.2623   2.5179   2.6363   3.7283   3.7958   4.0105   4.0945
     4.9499   5.0524   7.2241   7.4195   7.8926   7.9963   8.3157   8.5261
    10.4590  10.6112  11.5080  11.5414

          k = 0.0000-0.5774 0.0000 (  6800 PWs)   bands (ev):

    -6.6371  -6.6371  -5.0054  -5.0054  -4.0781  -4.0781   1.0209   1.0209
     1.5253   1.5253   2.3612   2.3612   2.5718   2.5718   4.8422   4.8422
     5.1275   5.1275   6.9238   6.9238   7.0475   7.0475   9.0173   9.0173
     9.7226   9.7226  13.4082  13.4082

          k = 0.0000-0.5774 0.1243 (  6788 PWs)   bands (ev):

    -6.5635  -6.5598  -5.1656  -5.1614  -4.0271  -4.0192   0.9857   1.0248
     1.1879   1.2945   2.3136   2.4731   3.1851   3.3610   4.4757   4.6405
     4.7954   4.8761   6.9199   6.9571   7.5131   7.7259   9.1592   9.1797
     9.3641   9.4768  12.9285  12.9413

          k = 0.0000-0.5774 0.2486 (  6822 PWs)   bands (ev):

    -6.3540  -6.3475  -5.5183  -5.5108  -3.9342  -3.9272   0.4718   0.5017
     1.6392   1.7467   2.4265   2.5419   3.6280   3.9030   4.0939   4.2790
     4.7466   4.9453   7.2695   7.3479   7.8596   7.9409   8.2807   8.6105
    10.0828  10.3003  11.7582  11.7827

          k = 0.0000-0.5774-0.3728 (  6804 PWs)   bands (ev):

    -6.1411  -6.1411  -5.7862  -5.7862  -3.8888  -3.8888   0.2876   0.2876
     2.1763   2.1763   2.3088   2.3088   3.5908   3.5908   3.9428   3.9428
     5.7725   5.7725   6.7207   6.7207   7.7947   7.7947   8.6728   8.6728
    10.5510  10.5511  11.3479  11.3479

          k = 0.1667 0.2887 0.0000 (  6787 PWs)   bands (ev):

    -7.1331  -7.1325  -4.5191  -4.5089  -4.2588  -4.2503   1.2473   1.3605
     1.5188   1.6268   2.8945   3.0564   4.0555   4.2104   4.3333   4.4038
     4.8027   4.8513   7.5197   7.5564   7.6105   7.6435   7.9818   8.0007
    10.2956  10.3022  10.5692  10.5714

          k = 0.1667 0.2887 0.1243 (  6794 PWs)   bands (ev):

    -7.0424  -7.0403  -5.0951  -5.0911  -3.7456  -3.7405   1.2616   1.3270
     1.6756   1.7312   2.8017   2.9358   3.6137   3.7090   4.3950   4.5123
     5.4291   5.4958   6.8658   6.9371   7.6730   7.7129   8.2874   8.3186
    10.2688  10.2992  10.8780  10.9171

          k = 0.1667 0.2887 0.2486 (  6797 PWs)   bands (ev):

    -6.7736  -6.7698  -5.7594  -5.7544  -3.3004  -3.2947   1.2723   1.3657
     1.7738   1.9082   2.6352   2.7517   3.3011   3.4823   4.8544   4.9839
     5.1716   5.2951   6.8122   6.8673   7.6625   7.6725   8.4709   8.5242
    10.4475  10.4682  11.6447  11.6666

          k = 0.1667 0.2887-0.3728 (  6802 PWs)   bands (ev):

    -6.3835  -6.3804  -6.2864  -6.2833  -3.1321  -3.1306   1.2471   1.3434
     2.0775   2.0927   2.2048   2.3051   3.8684   4.0290   4.4317   4.4646
     5.1727   5.2572   6.7420   6.8212   8.1205   8.1362   8.3228   8.3435
    10.6385  10.6782  11.2461  11.2513

          k = 0.1667 0.4811 0.0000 (  6797 PWs)   bands (ev):

    -6.6640  -6.6632  -4.8219  -4.8158  -4.2695  -4.2641   1.0954   1.1670
     1.3734   1.4809   2.4522   2.6512   2.9392   3.0626   3.9799   4.0674
     4.2190   4.2591   7.7617   7.7977   8.1219   8.1353   9.2351   9.2450
     9.8890   9.9052  11.7580  11.7788

          k = 0.1667 0.4811 0.1243 (  6802 PWs)   bands (ev):

    -6.5809  -6.5772  -5.1228  -5.1176  -4.0406  -4.0320   0.8349   0.8678
     1.3293   1.4286   2.3829   2.5134   3.1728   3.3401   4.0364   4.1664
     4.8755   4.9934   7.3068   7.3728   8.3389   8.3728   8.4874   8.5597
    10.0297  10.0841  11.9511  11.9737

          k = 0.1667 0.4811 0.2486 (  6801 PWs)   bands (ev):

    -6.3494  -6.3426  -5.5615  -5.5534  -3.8428  -3.8352   0.5713   0.6136
     1.3169   1.3925   2.1173   2.1914   3.4148   3.5424   4.9821   5.1894
     5.5413   5.7987   6.6580   6.7236   7.4297   7.5003   8.5236   8.6312
    10.3432  10.4199  12.3608  12.4211

          k = 0.1667 0.4811-0.3728 (  6810 PWs)   bands (ev):

    -6.0925  -6.0901  -5.8761  -5.8731  -3.7991  -3.7974   0.5584   0.5860
     1.5032   1.5338   1.6466   1.7300   4.2555   4.3588   4.7571   4.7986
     5.5573   5.6349   6.8578   6.9591   7.5448   7.6078   8.1937   8.2404
    10.8158  10.8498  11.7174  11.7320

          k = 0.3333 0.5774 0.0000 (  6807 PWs)   bands (ev):

    -6.4663  -6.4663  -4.6446  -4.6415  -4.6415  -4.6300   1.2430   1.4286
     1.4286   1.4443   2.7641   2.7641   2.8613   3.0665   3.0665   3.0902
     3.4439   3.4439   8.7522   8.7924   8.9586   8.9586   9.2092   9.2092
    10.9192  10.9192  11.9128  11.9129

          k = 0.3333 0.5774 0.1243 (  6834 PWs)   bands (ev):

    -6.3948  -6.3902  -5.0333  -5.0296  -4.3132  -4.3032   0.9501   0.9650
     1.3263   1.4913   2.1367   2.2445   2.8493   3.0333   3.8573   3.8978
     4.2391   4.4318   8.2021   8.3567   8.6876   8.8081   8.8149   8.8479
    11.1089  11.1577  11.6872  11.7400

          k = 0.3333 0.5774 0.2486 (  6774 PWs)   bands (ev):

    -6.1832  -6.1749  -5.4556  -5.4466  -4.0772  -4.0685   0.7664   0.8202
     0.9296   0.9882   1.4084   1.5200   3.8847   4.0186   4.9464   5.0974
     5.2939   5.5830   7.0649   7.1791   7.9074   7.9950   8.1123   8.1466
    11.6976  11.7441  11.7455  11.7641

          k = 0.3333 0.5774-0.3728 (  6768 PWs)   bands (ev):

    -5.8564  -5.8564  -5.8497  -5.8424  -3.9844  -3.9844   0.7531   0.7531
     0.9049   0.9583   1.0316   1.0316   4.8189   4.8189   5.8036   5.8036
     6.0529   6.1362   6.1362   6.1967   7.3120   7.3833   7.5383   7.5383
    11.9346  11.9346  12.5646  12.5698

          k = 0.0000 0.1925-0.1243 (  6789 PWs)   bands (ev):

    -7.3686  -7.3672  -5.1775  -5.1744  -3.5160  -3.5133   1.8278   1.9133
     2.5671   2.7642   2.8402   3.2022   4.2802   4.3294   4.4226   4.5990
     4.8532   5.0408   7.0068   7.0990   7.4233   7.5469   7.8357   7.9287
    10.7104  10.7515  11.0265  11.0633

          k = 0.0000 0.1925-0.2486 (  6783 PWs)   bands (ev):

    -7.0809  -7.0783  -5.9566  -5.9528  -2.8428  -2.8385   1.8275   1.8944
     2.6911   2.8521   3.1032   3.3490   3.7542   3.9769   4.2008   4.2873
     4.6699   4.8238   7.0363   7.0766   7.6917   7.7892   7.8505   7.9206
    10.6477  10.6680  11.2842  11.3059

          k = 0.0000 0.3849-0.1243 (  6783 PWs)   bands (ev):

    -6.9145  -6.9122  -5.0080  -5.0042  -3.9685  -3.9625   1.3261   1.4376
     1.8348   1.9522   2.5629   2.7934   2.8207   3.0394   4.3796   4.6285
     4.8243   4.9842   6.9969   7.0872   7.7091   7.9336   9.1974   9.2106
     9.9745  10.0870  11.8366  11.8532

          k = 0.0000 0.3849-0.2486 (  6810 PWs)   bands (ev):

    -6.6690  -6.6650  -5.6255  -5.6203  -3.5951  -3.5891   1.2081   1.2818
     1.9756   2.1366   2.5813   2.7288   3.3012   3.6634   3.9205   4.0939
     4.4231   4.6471   7.4040   7.4504   8.2615   8.4117   8.8718   8.8873
    10.5988  10.7108  11.4569  11.4730

          k =-0.1667 0.4811-0.1243 (  6802 PWs)   bands (ev):

    -6.5923  -6.5887  -5.0351  -5.0303  -4.1556  -4.1467   1.0293   1.0821
     1.4241   1.4953   2.4013   2.5613   2.8234   3.1895   3.6475   3.8389
     5.0990   5.1620   7.1513   7.2125   8.2451   8.2936   9.2845   9.3091
    10.1404  10.1954  11.7856  11.7969

          k =-0.1667 0.4811-0.2486 (  6801 PWs)   bands (ev):

    -6.3735  -6.3675  -5.4931  -5.4860  -3.9262  -3.9186   0.8222   0.8949
     1.2201   1.2873   2.0693   2.1445   3.5207   3.7306   4.4466   4.5857
     5.3505   5.4806   6.9168   6.9523   8.1006   8.1623   8.5713   8.6155
    10.6030  10.6474  11.7224  11.7494

     the Fermi energy is     6.1315 ev

!    total energy              =     -85.64385609 Ry
     estimated scf accuracy    <          3.4E-09 Ry
     smearing contrib. (-TS)   =      -0.00009308 Ry
     internal energy E=F+TS    =     -85.64376301 Ry

     The total energy is F=E-TS. E is the sum of the following terms:
     one-electron contribution =      10.22369817 Ry
     hartree contribution      =       3.35334460 Ry
     xc contribution           =     -49.70010066 Ry
     ewald contribution        =     -49.52070511 Ry

     convergence has been achieved in   7 iterations

     Writing all to output data dir /home/user/workspace/qe_runs/strain_hc2b_pois_p0050/out/tehc2bpois_p0050.save/ :
     XML data file, charge density, pseudopotentials, collected wavefunctions

     init_run     :      3.95s CPU      4.41s WALL (       1 calls)
     electrons    :    101.60s CPU    109.35s WALL (       1 calls)

     Called by init_run:
     wfcinit      :      2.64s CPU      2.76s WALL (       1 calls)
     potinit      :      0.19s CPU      0.23s WALL (       1 calls)
     hinit0       :      0.51s CPU      0.52s WALL (       1 calls)

     Called by electrons:
     c_bands      :     78.58s CPU     80.40s WALL (       8 calls)
     sum_band     :     18.12s CPU     21.67s WALL (       8 calls)
     v_of_rho     :      0.51s CPU      0.54s WALL (       8 calls)
     newd         :      4.68s CPU      7.30s WALL (       8 calls)
     mix_rho      :      0.18s CPU      0.20s WALL (       8 calls)

     Called by c_bands:
     init_us_2    :      0.99s CPU      1.02s WALL (     578 calls)
     cegterg      :     68.41s CPU     70.12s WALL (     272 calls)

     Called by *egterg:
     cdiaghg      :      1.33s CPU      1.35s WALL (    1572 calls)
     h_psi        :     56.62s CPU     58.28s WALL (    1640 calls)
     s_psi        :      2.86s CPU      2.89s WALL (    1640 calls)
     g_psi        :      0.54s CPU      0.54s WALL (    1334 calls)

     Called by h_psi:
     h_psi:calbec :      3.45s CPU      3.55s WALL (    1640 calls)
     vloc_psi     :     50.05s CPU     51.57s WALL (    1640 calls)
                                        0.00s GPU  (    1640 calls)
     add_vuspsi   :      2.79s CPU      2.82s WALL (    1640 calls)

     General routines
     calbec       :      4.44s CPU      4.56s WALL (    1912 calls)
     fft          :      0.53s CPU      0.55s WALL (     190 calls)
     ffts         :      0.15s CPU      0.15s WALL (      64 calls)
     fftw         :     52.68s CPU     54.25s WALL (  107976 calls)
     interpolate  :      0.20s CPU      0.21s WALL (      32 calls)

     Parallel routines

     PWSCF        :   1m45.75s CPU   1m54.32s WALL


   This run was terminated on:  15:38:58  20Aug2026            

=------------------------------------------------------------------------------=
   JOB DONE.
=------------------------------------------------------------------------------=
