
     Program PWSCF v.7.5 starts on 20Aug2026 at  7:44: 3 

     This program is part of the open-source Quantum ESPRESSO suite
     for quantum simulation of materials; please cite
         "P. Giannozzi et al., J. Phys.:Condens. Matter 21 395502 (2009);
         "P. Giannozzi et al., J. Phys.:Condens. Matter 29 465901 (2017);
         "P. Giannozzi et al., J. Chem. Phys. 152 154105 (2020);
          URL http://www.quantum-espresso.org", 
     in publications or presentations arising from this work. More details at
     http://www.quantum-espresso.org/quote

     Parallel version (MPI & OpenMP), running on       2 processor cores
     Number of MPI processes:                 2
     Threads/MPI process:                     1

     MPI processes distributed on     1 nodes
     2871 MiB available memory on the printing compute node when the environment starts

     Reading input from strain_clamp_m0025/bands.in

     Current dimensions of program PWSCF are:
     Max number of different atomic species (ntypx) = 10
     Max number of k-points (npk) =  40000
     Max angular momentum in pseudopotentials (lmaxx) =  4
     file Te.rel-pbe-n-rrkjus_psl.1.0.0.UPF: wavefunction(s)  5S renormalized

     Atomic positions and unit cell read from directory:
     /home/user/workspace/qe_runs/strain_clamp_m0025/out/teclamp_m0025.save/

     Message from routine setup:
     using ibrav=0 with symmetry is DISCOURAGED, use correct ibrav instead

     R & G space division:  proc/nbgrp/npool/nimage =       2
     Subspace diagonalization in iterative solution of the eigenvalue problem:
     a serial algorithm will be used


     Parallelization info
     --------------------
     sticks:   dense  smooth     PW     G-vecs:    dense   smooth      PW
     Min         741     483    147                30111    16360    2703
     Max         742     484    148                30112    16361    2706
     Sum        1483     967    295                60223    32721    5409

     Using Slab Decomposition



     bravais-lattice index     =            0
     lattice parameter (alat)  =       8.4229  a.u.
     unit-cell volume          =     686.6690 (a.u.)^3
     number of atoms/cell      =            3
     number of atomic types    =            1
     number of electrons       =        18.00
     number of Kohn-Sham states=           28
     kinetic-energy cutoff     =      50.0000  Ry
     charge density cutoff     =     300.0000  Ry
     Exchange-correlation= PBE
                           (   1   4   3   4   0   0   0)
     Non magnetic calculation with spin-orbit


     celldm(1)=   8.422887  celldm(2)=   0.000000  celldm(3)=   0.000000
     celldm(4)=   0.000000  celldm(5)=   0.000000  celldm(6)=   0.000000

     crystal axes: (cart. coord. in units of alat)
               a(1) = (   1.000000   0.000000   0.000000 )  
               a(2) = (  -0.500000   0.866025   0.000000 )  
               a(3) = (   0.000000   0.000000   1.326887 )  

     reciprocal axes: (cart. coord. in units 2 pi/alat)
               b(1) = (  1.000000  0.577350 -0.000000 )  
               b(2) = (  0.000000  1.154701  0.000000 )  
               b(3) = (  0.000000 -0.000000  0.753644 )  


     PseudoPot. # 1 for Te read from file:
     /home/user/workspace/qe_runs/pseudo/Te.rel-pbe-n-rrkjus_psl.1.0.0.UPF
     MD5 check sum: 7fd30b6833abd190471e4dcc2367351b
     Pseudo is Ultrasoft + core correction, Zval =  6.0
     Generated using &quot;atomic&quot; code by A. Dal Corso  v.6.3
     Using radial grid of 1245 points, 10 beta functions with: 
                l(1) =   0
                l(2) =   0
                l(3) =   1
                l(4) =   1
                l(5) =   1
                l(6) =   1
                l(7) =   2
                l(8) =   2
                l(9) =   2
               l(10) =   2
     Q(r) pseudized with 0 coefficients 


     atomic species   valence    mass     pseudopotential
     Te                6.00   127.60000     Te( 1.00)

      6 Sym. Ops. (no inversion) found ( 4 have fractional translation)


                                    s                        frac. trans.

      isym =  1     identity                                     

 cryst.   s( 1) = (     1          0          0      )
                  (     0          1          0      )
                  (     0          0          1      )

 cart.    s( 1) = (  1.0000000  0.0000000  0.0000000 )
                  (  0.0000000  1.0000000  0.0000000 )
                  (  0.0000000  0.0000000  1.0000000 )


      isym =  2     180 deg rotation - cart. axis [1,0,0]        

 cryst.   s( 2) = (     1          0          0      )    f =(  0.0000000 )
                  (    -1         -1          0      )       (  0.0000000 )
                  (     0          0         -1      )       (  0.3333334 )

 cart.    s( 2) = (  1.0000000  0.0000000  0.0000000 )    f =(  0.0000000 )
                  (  0.0000000 -1.0000000  0.0000000 )       (  0.0000000 )
                  (  0.0000000  0.0000000 -1.0000000 )       (  0.4422957 )


      isym =  3     120 deg rotation - cryst. axis [0,0,1]       

 cryst.   s( 3) = (     0          1          0      )    f =(  0.0000000 )
                  (    -1         -1          0      )       (  0.0000000 )
                  (     0          0          1      )       ( -0.3333333 )

 cart.    s( 3) = ( -0.5000000 -0.8660255  0.0000000 )    f =(  0.0000000 )
                  (  0.8660253 -0.5000000  0.0000000 )       (  0.0000000 )
                  (  0.0000000  0.0000000  1.0000000 )       ( -0.4422956 )


      isym =  4     120 deg rotation - cryst. axis [0,0,-1]      

 cryst.   s( 4) = (    -1         -1          0      )    f =(  0.0000000 )
                  (     1          0          0      )       (  0.0000000 )
                  (     0          0          1      )       (  0.3333334 )

 cart.    s( 4) = ( -0.5000000  0.8660255  0.0000000 )    f =(  0.0000000 )
                  ( -0.8660253 -0.5000000  0.0000000 )       (  0.0000000 )
                  (  0.0000000  0.0000000  1.0000000 )       (  0.4422957 )


      isym =  5     180 deg rotation - cryst. axis [0,1,0]       

 cryst.   s( 5) = (    -1         -1          0      )    f =(  0.0000000 )
                  (     0          1          0      )       (  0.0000000 )
                  (     0          0         -1      )       ( -0.3333333 )

 cart.    s( 5) = ( -0.5000000 -0.8660255  0.0000000 )    f =(  0.0000000 )
                  ( -0.8660253  0.5000000  0.0000000 )       (  0.0000000 )
                  (  0.0000000  0.0000000 -1.0000000 )       ( -0.4422956 )


      isym =  6     180 deg rotation - cryst. axis [1,1,0]       

 cryst.   s( 6) = (     0          1          0      )
                  (     1          0          0      )
                  (     0          0         -1      )

 cart.    s( 6) = ( -0.5000000  0.8660255  0.0000000 )
                  (  0.8660253  0.5000000  0.0000000 )
                  (  0.0000000  0.0000000 -1.0000000 )


   Cartesian axes

     site n.     atom                  positions (alat units)
         1        Te     tau(   1) = (   0.2636000   0.0000000   0.4422956  )
         2        Te     tau(   2) = (  -0.1318000   0.2282843   0.8845913  )
         3        Te     tau(   3) = (  -0.1318000  -0.2282843   0.0000000  )

   Crystallographic axes

     site n.     atom                  positions (cryst. coord.)
         1        Te     tau(   1) = (  0.2636000  0.0000000  0.3333333  )
         2        Te     tau(   2) = (  0.0000000  0.2636000  0.6666667  )
         3        Te     tau(   3) = ( -0.2636000 -0.2636000  0.0000000  )

     number of k points=     7  Gaussian smearing, width (Ry)=  0.0100
                       cart. coord. in units 2pi/alat
        k(    1) = (   0.3333333   0.5773503   0.0000000), wk =   0.1428571
        k(    2) = (   0.3333333   0.5773503   0.1507288), wk =   0.1428571
        k(    3) = (   0.3333333   0.5773503   0.3014575), wk =   0.1428571
        k(    4) = (   0.3333333   0.5773503   0.3768219), wk =   0.1428571
        k(    5) = (   0.3333333   0.5773503   0.4521863), wk =   0.1428571
        k(    6) = (   0.3333333   0.5773503   0.6029150), wk =   0.1428571
        k(    7) = (   0.0000000   0.0000000   0.3768219), wk =   0.1428571

                       cryst. coord.
        k(    1) = (   0.3333333   0.3333333   0.0000000), wk =   0.1428571
        k(    2) = (   0.3333333   0.3333333   0.2000000), wk =   0.1428571
        k(    3) = (   0.3333333   0.3333333   0.4000000), wk =   0.1428571
        k(    4) = (   0.3333333   0.3333333   0.5000000), wk =   0.1428571
        k(    5) = (   0.3333333   0.3333333   0.6000000), wk =   0.1428571
        k(    6) = (   0.3333333   0.3333333   0.8000000), wk =   0.1428571
        k(    7) = (   0.0000000   0.0000000   0.5000000), wk =   0.1428571

     Dense  grid:    60223 G-vectors     FFT dimensions: (  48,  48,  72)

     Smooth grid:    32721 G-vectors     FFT dimensions: (  40,  40,  54)

     Dynamical RAM for                 wfc:       1.75 MB

     Dynamical RAM for     wfc (w. buffer):       1.75 MB

     Dynamical RAM for           str. fact:       0.46 MB

     Dynamical RAM for           local pot:       0.00 MB

     Dynamical RAM for          nlocal pot:       3.19 MB

     Dynamical RAM for                qrad:       3.64 MB

     Dynamical RAM for          rho,v,vnew:      13.11 MB

     Dynamical RAM for           G-vectors:       1.85 MB

     Dynamical RAM for          h,s,v(r/c):       0.14 MB

     Dynamical RAM for          <psi|beta>:       0.09 MB

     Dynamical RAM for                 psi:       3.50 MB

     Dynamical RAM for                hpsi:       3.50 MB

     Dynamical RAM for                spsi:       3.50 MB

     Dynamical RAM for      wfcinit/wfcrot:       2.65 MB

     Dynamical RAM for           addusdens:     281.66 MB

     Estimated static dynamical RAM per process >      29.98 MB

     Estimated max dynamical RAM per process >     311.64 MB

     Estimated total dynamical RAM >     623.28 MB

     The potential is recalculated from file :
     /home/user/workspace/qe_runs/strain_clamp_m0025/out/teclamp_m0025.save/charge-density

     Starting wfcs are   24 randomized atomic wfcs +    4 random wfcs

     Band Structure Calculation
     Davidson diagonalization with overlap

     Computing kpt #:     1  of     7
     total cpu time spent up to now is        2.0 secs

     Computing kpt #:     2  of     7
     total cpu time spent up to now is        2.7 secs

     Computing kpt #:     3  of     7
     total cpu time spent up to now is        3.4 secs

     Computing kpt #:     4  of     7
     total cpu time spent up to now is        4.5 secs

     Computing kpt #:     5  of     7
     total cpu time spent up to now is        5.3 secs

     Computing kpt #:     6  of     7
     total cpu time spent up to now is        6.0 secs

     Computing kpt #:     7  of     7
     total cpu time spent up to now is        6.9 secs

     ethr =  1.00E-06,  avg # of iterations = 37.6

     total cpu time spent up to now is        6.9 secs

     End of band structure calculation

          k = 0.3333 0.5774 0.0000 (  4104 PWs)   bands (ev):

    -6.4833  -6.4833  -4.6339  -4.6308  -4.6308  -4.6191   1.2538   1.4415
     1.4415   1.4568   2.7900   2.7900   2.8855   3.0877   3.0877   3.1166
     3.4740   3.4740   8.7822   8.8236   8.9902   8.9902   9.2387   9.2387
    10.8819  10.8819  11.8906  11.8906

          k = 0.3333 0.5774 0.1507 (  4110 PWs)   bands (ev):

    -6.3781  -6.3725  -5.1113  -5.1062  -4.2428  -4.2322   0.8862   0.9146
     1.2540   1.4013   1.9874   2.1021   3.0438   3.2235   4.1019   4.1657
     4.4909   4.6990   8.0702   8.2166   8.6325   8.6916   8.7017   8.7657
    11.1693  11.2204  11.6428  11.6829

          k = 0.3333 0.5774 0.3015 (  4080 PWs)   bands (ev):

    -6.0737  -6.0640  -5.6232  -5.6129  -4.0025  -3.9964   0.7883   0.7907
     0.8524   0.8901   1.1872   1.2933   4.4053   4.5081   5.3960   5.6068
     5.6597   6.0170   6.6479   6.7430   7.5721   7.7411   7.8270   7.8723
    11.8128  11.8325  12.0294  12.0744

          k = 0.3333 0.5774 0.3768 (  4116 PWs)   bands (ev):

    -5.8620  -5.8620  -5.8550  -5.8477  -3.9664  -3.9664   0.7544   0.7544
     0.9039   0.9573   1.0306   1.0306   4.8647   4.8647   5.8393   5.8393
     6.0891   6.2149   6.2149   6.2292   7.3578   7.4238   7.5889   7.5889
    11.9183  11.9183  12.5798  12.5843

          k = 0.3333 0.5774 0.4522 (  4080 PWs)   bands (ev):

    -6.0737  -6.0640  -5.6232  -5.6129  -4.0025  -3.9964   0.7883   0.7907
     0.8524   0.8901   1.1872   1.2933   4.4053   4.5081   5.3960   5.6068
     5.6597   6.0170   6.6479   6.7430   7.5721   7.7412   7.8270   7.8723
    11.8128  11.8325  12.0294  12.0744

          k = 0.3333 0.5774 0.6029 (  4110 PWs)   bands (ev):

    -6.3781  -6.3725  -5.1113  -5.1062  -4.2428  -4.2322   0.8862   0.9146
     1.2540   1.4013   1.9874   2.1021   3.0438   3.2235   4.1019   4.1657
     4.4909   4.6990   8.0702   8.2166   8.6325   8.6916   8.7017   8.7657
    11.1693  11.2204  11.6428  11.6829

          k = 0.0000 0.0000 0.3768 (  4130 PWs)   bands (ev):

    -6.7518  -6.7518  -6.7487  -6.7487  -2.1287  -2.1287   1.8509   1.8509
     3.1810   3.1810   3.4685   3.4685   4.5718   4.5718   4.8006   4.8006
     5.0805   5.0805   6.4767   6.4767   6.5757   6.5757   6.8039   6.8039
    10.0503  10.0503  11.3233  11.3235

     Writing all to output data dir /home/user/workspace/qe_runs/strain_clamp_m0025/out/teclamp_m0025.save/ :
     XML data file, pseudopotentials, collected wavefunctions

     init_run     :      0.90s CPU      1.03s WALL (       1 calls)
     electrons    :      5.57s CPU      5.72s WALL (       1 calls)

     Called by init_run:
     wfcinit      :      0.00s CPU      0.00s WALL (       1 calls)
     wfcinit:atom :      0.00s CPU      0.00s WALL (       7 calls)
     wfcinit:wfcr :      0.29s CPU      0.30s WALL (       7 calls)
     potinit      :      0.17s CPU      0.18s WALL (       1 calls)
     hinit0       :      0.47s CPU      0.47s WALL (       1 calls)

     Called by electrons:
     c_bands      :      5.57s CPU      5.71s WALL (       1 calls)
     v_of_rho     :      0.03s CPU      0.03s WALL (       1 calls)
     v_h          :      0.00s CPU      0.00s WALL (       1 calls)
     v_xc         :      0.02s CPU      0.03s WALL (       1 calls)
     newd         :      0.25s CPU      0.37s WALL (       1 calls)

     Called by c_bands:
     init_us_2    :      0.00s CPU      0.01s WALL (       7 calls)
     cegterg      :      5.08s CPU      5.20s WALL (      17 calls)

     Called by sum_band:

     Called by *egterg:
     cdiaghg      :      0.22s CPU      0.22s WALL (     270 calls)
     cegterg:over :      0.29s CPU      0.29s WALL (     263 calls)
     cegterg:upda :      0.18s CPU      0.18s WALL (     263 calls)
     cegterg:last :      0.35s CPU      0.35s WALL (     105 calls)
     h_psi        :      3.90s CPU      4.03s WALL (     287 calls)
     s_psi        :      0.25s CPU      0.25s WALL (     287 calls)
     g_psi        :      0.05s CPU      0.05s WALL (     263 calls)

     Called by h_psi:
     h_psi:calbec :      0.30s CPU      0.30s WALL (     287 calls)
     vloc_psi     :      3.34s CPU      3.45s WALL (     287 calls)
                                        0.00s GPU  (     287 calls)
     add_vuspsi   :      0.25s CPU      0.25s WALL (     287 calls)

     General routines
     calbec       :      0.30s CPU      0.30s WALL (     287 calls)
     fft          :      0.22s CPU      0.22s WALL (      19 calls)
     ffts         :      0.14s CPU      0.14s WALL (       4 calls)
     fftw         :      2.94s CPU      3.04s WALL (   12704 calls)
     interpolate  :      0.14s CPU      0.14s WALL (       4 calls)
     davcio       :      0.01s CPU      0.01s WALL (      14 calls)

     Parallel routines

     PWSCF        :      6.65s CPU      8.55s WALL


   This run was terminated on:   7:44:12  20Aug2026            

=------------------------------------------------------------------------------=
   JOB DONE.
=------------------------------------------------------------------------------=
