
     Program PWSCF v.7.5 starts on 20Aug2026 at  7:42:55 

     This program is part of the open-source Quantum ESPRESSO suite
     for quantum simulation of materials; please cite
         "P. Giannozzi et al., J. Phys.:Condens. Matter 21 395502 (2009);
         "P. Giannozzi et al., J. Phys.:Condens. Matter 29 465901 (2017);
         "P. Giannozzi et al., J. Chem. Phys. 152 154105 (2020);
          URL http://www.quantum-espresso.org", 
     in publications or presentations arising from this work. More details at
     http://www.quantum-espresso.org/quote

     Parallel version (MPI & OpenMP), running on       2 processor cores
     Number of MPI processes:                 2
     Threads/MPI process:                     1

     MPI processes distributed on     1 nodes
     2992 MiB available memory on the printing compute node when the environment starts

     Reading input from strain_clamp_m0025/scf.in

     Current dimensions of program PWSCF are:
     Max number of different atomic species (ntypx) = 10
     Max number of k-points (npk) =  40000
     Max angular momentum in pseudopotentials (lmaxx) =  4
     file Te.rel-pbe-n-rrkjus_psl.1.0.0.UPF: wavefunction(s)  5S renormalized
     Message from routine setup:
     using ibrav=0 with symmetry is DISCOURAGED, use correct ibrav instead

     R & G space division:  proc/nbgrp/npool/nimage =       2
     Subspace diagonalization in iterative solution of the eigenvalue problem:
     a serial algorithm will be used


     Parallelization info
     --------------------
     sticks:   dense  smooth     PW     G-vecs:    dense   smooth      PW
     Min         741     483    141                30111    16360    2577
     Max         742     484    142                30112    16361    2580
     Sum        1483     967    283                60223    32721    5157

     Using Slab Decomposition



     bravais-lattice index     =            0
     lattice parameter (alat)  =       8.4229  a.u.
     unit-cell volume          =     686.6690 (a.u.)^3
     number of atoms/cell      =            3
     number of atomic types    =            1
     number of electrons       =        18.00
     number of Kohn-Sham states=           26
     kinetic-energy cutoff     =      50.0000  Ry
     charge density cutoff     =     300.0000  Ry
     scf convergence threshold =      1.0E-08
     mixing beta               =       0.4000
     number of iterations used =            8  plain     mixing
     Exchange-correlation= PBE
                           (   1   4   3   4   0   0   0)
     Non magnetic calculation with spin-orbit


     celldm(1)=   8.422887  celldm(2)=   0.000000  celldm(3)=   0.000000
     celldm(4)=   0.000000  celldm(5)=   0.000000  celldm(6)=   0.000000

     crystal axes: (cart. coord. in units of alat)
               a(1) = (   1.000000   0.000000   0.000000 )  
               a(2) = (  -0.500000   0.866025   0.000000 )  
               a(3) = (   0.000000   0.000000   1.326887 )  

     reciprocal axes: (cart. coord. in units 2 pi/alat)
               b(1) = (  1.000000  0.577350 -0.000000 )  
               b(2) = (  0.000000  1.154701  0.000000 )  
               b(3) = (  0.000000 -0.000000  0.753644 )  


     PseudoPot. # 1 for Te read from file:
     /home/user/workspace/qe_runs/pseudo/Te.rel-pbe-n-rrkjus_psl.1.0.0.UPF
     MD5 check sum: 7fd30b6833abd190471e4dcc2367351b
     Pseudo is Ultrasoft + core correction, Zval =  6.0
     Generated using &quot;atomic&quot; code by A. Dal Corso  v.6.3
     Using radial grid of 1245 points, 10 beta functions with: 
                l(1) =   0
                l(2) =   0
                l(3) =   1
                l(4) =   1
                l(5) =   1
                l(6) =   1
                l(7) =   2
                l(8) =   2
                l(9) =   2
               l(10) =   2
     Q(r) pseudized with 0 coefficients 


     atomic species   valence    mass     pseudopotential
     Te                6.00   127.60000     Te( 1.00)

      6 Sym. Ops. (no inversion) found ( 4 have fractional translation)


                                    s                        frac. trans.

      isym =  1     identity                                     

 cryst.   s( 1) = (     1          0          0      )
                  (     0          1          0      )
                  (     0          0          1      )

 cart.    s( 1) = (  1.0000000  0.0000000  0.0000000 )
                  (  0.0000000  1.0000000  0.0000000 )
                  (  0.0000000  0.0000000  1.0000000 )


      isym =  2     180 deg rotation - cart. axis [1,0,0]        

 cryst.   s( 2) = (     1          0          0      )    f =(  0.0000000 )
                  (    -1         -1          0      )       (  0.0000000 )
                  (     0          0         -1      )       (  0.3333334 )

 cart.    s( 2) = (  1.0000000  0.0000000  0.0000000 )    f =(  0.0000000 )
                  (  0.0000000 -1.0000000  0.0000000 )       (  0.0000000 )
                  (  0.0000000  0.0000000 -1.0000000 )       (  0.4422957 )


      isym =  3     120 deg rotation - cryst. axis [0,0,1]       

 cryst.   s( 3) = (     0          1          0      )    f =(  0.0000000 )
                  (    -1         -1          0      )       (  0.0000000 )
                  (     0          0          1      )       ( -0.3333333 )

 cart.    s( 3) = ( -0.5000000 -0.8660255  0.0000000 )    f =(  0.0000000 )
                  (  0.8660253 -0.5000000  0.0000000 )       (  0.0000000 )
                  (  0.0000000  0.0000000  1.0000000 )       ( -0.4422956 )


      isym =  4     120 deg rotation - cryst. axis [0,0,-1]      

 cryst.   s( 4) = (    -1         -1          0      )    f =(  0.0000000 )
                  (     1          0          0      )       (  0.0000000 )
                  (     0          0          1      )       (  0.3333334 )

 cart.    s( 4) = ( -0.5000000  0.8660255  0.0000000 )    f =(  0.0000000 )
                  ( -0.8660253 -0.5000000  0.0000000 )       (  0.0000000 )
                  (  0.0000000  0.0000000  1.0000000 )       (  0.4422957 )


      isym =  5     180 deg rotation - cryst. axis [0,1,0]       

 cryst.   s( 5) = (    -1         -1          0      )    f =(  0.0000000 )
                  (     0          1          0      )       (  0.0000000 )
                  (     0          0         -1      )       ( -0.3333333 )

 cart.    s( 5) = ( -0.5000000 -0.8660255  0.0000000 )    f =(  0.0000000 )
                  ( -0.8660253  0.5000000  0.0000000 )       (  0.0000000 )
                  (  0.0000000  0.0000000 -1.0000000 )       ( -0.4422956 )


      isym =  6     180 deg rotation - cryst. axis [1,1,0]       

 cryst.   s( 6) = (     0          1          0      )
                  (     1          0          0      )
                  (     0          0         -1      )

 cart.    s( 6) = ( -0.5000000  0.8660255  0.0000000 )
                  (  0.8660253  0.5000000  0.0000000 )
                  (  0.0000000  0.0000000 -1.0000000 )


   Cartesian axes

     site n.     atom                  positions (alat units)
         1        Te     tau(   1) = (   0.2636000   0.0000000   0.4422956  )
         2        Te     tau(   2) = (  -0.1318000   0.2282843   0.8845913  )
         3        Te     tau(   3) = (  -0.1318000  -0.2282843   0.0000000  )

   Crystallographic axes

     site n.     atom                  positions (cryst. coord.)
         1        Te     tau(   1) = (  0.2636000  0.0000000  0.3333333  )
         2        Te     tau(   2) = (  0.0000000  0.2636000  0.6666667  )
         3        Te     tau(   3) = ( -0.2636000 -0.2636000  0.0000000  )

     number of k points=    34  Gaussian smearing, width (Ry)=  0.0100
                       cart. coord. in units 2pi/alat
        k(    1) = (   0.0000000   0.0000000   0.0000000), wk =   0.0046296
        k(    2) = (   0.0000000   0.0000000   0.1256073), wk =   0.0092593
        k(    3) = (   0.0000000   0.0000000   0.2512146), wk =   0.0092593
        k(    4) = (   0.0000000   0.0000000  -0.3768219), wk =   0.0046296
        k(    5) = (   0.0000000   0.1924501   0.0000000), wk =   0.0277778
        k(    6) = (   0.0000000   0.1924501   0.1256073), wk =   0.0277778
        k(    7) = (   0.0000000   0.1924501   0.2512146), wk =   0.0277778
        k(    8) = (   0.0000000   0.1924501  -0.3768219), wk =   0.0277778
        k(    9) = (   0.0000000   0.3849002   0.0000000), wk =   0.0277778
        k(   10) = (   0.0000000   0.3849002   0.1256073), wk =   0.0277778
        k(   11) = (   0.0000000   0.3849002   0.2512146), wk =   0.0277778
        k(   12) = (   0.0000000   0.3849002  -0.3768219), wk =   0.0277778
        k(   13) = (   0.0000000  -0.5773503   0.0000000), wk =   0.0138889
        k(   14) = (   0.0000000  -0.5773503   0.1256073), wk =   0.0277778
        k(   15) = (   0.0000000  -0.5773503   0.2512146), wk =   0.0277778
        k(   16) = (   0.0000000  -0.5773503  -0.3768219), wk =   0.0138889
        k(   17) = (   0.1666667   0.2886752   0.0000000), wk =   0.0277778
        k(   18) = (   0.1666667   0.2886752   0.1256073), wk =   0.0555556
        k(   19) = (   0.1666667   0.2886752   0.2512146), wk =   0.0555556
        k(   20) = (   0.1666667   0.2886752  -0.3768219), wk =   0.0277778
        k(   21) = (   0.1666667   0.4811253   0.0000000), wk =   0.0555556
        k(   22) = (   0.1666667   0.4811253   0.1256073), wk =   0.0555556
        k(   23) = (   0.1666667   0.4811253   0.2512146), wk =   0.0555556
        k(   24) = (   0.1666667   0.4811253  -0.3768219), wk =   0.0555556
        k(   25) = (   0.3333333   0.5773503   0.0000000), wk =   0.0092593
        k(   26) = (   0.3333333   0.5773503   0.1256073), wk =   0.0185185
        k(   27) = (   0.3333333   0.5773503   0.2512146), wk =   0.0185185
        k(   28) = (   0.3333333   0.5773503  -0.3768219), wk =   0.0092593
        k(   29) = (   0.0000000   0.1924501  -0.1256073), wk =   0.0277778
        k(   30) = (   0.0000000   0.1924501  -0.2512146), wk =   0.0277778
        k(   31) = (   0.0000000   0.3849002  -0.1256073), wk =   0.0277778
        k(   32) = (   0.0000000   0.3849002  -0.2512146), wk =   0.0277778
        k(   33) = (  -0.1666667   0.4811253  -0.1256073), wk =   0.0555556
        k(   34) = (  -0.1666667   0.4811253  -0.2512146), wk =   0.0555556

                       cryst. coord.
        k(    1) = (   0.0000000   0.0000000   0.0000000), wk =   0.0046296
        k(    2) = (   0.0000000   0.0000000   0.1666667), wk =   0.0092593
        k(    3) = (   0.0000000   0.0000000   0.3333333), wk =   0.0092593
        k(    4) = (   0.0000000   0.0000000  -0.5000000), wk =   0.0046296
        k(    5) = (   0.0000000   0.1666667   0.0000000), wk =   0.0277778
        k(    6) = (   0.0000000   0.1666667   0.1666667), wk =   0.0277778
        k(    7) = (   0.0000000   0.1666667   0.3333333), wk =   0.0277778
        k(    8) = (   0.0000000   0.1666667  -0.5000000), wk =   0.0277778
        k(    9) = (   0.0000000   0.3333333   0.0000000), wk =   0.0277778
        k(   10) = (   0.0000000   0.3333333   0.1666667), wk =   0.0277778
        k(   11) = (   0.0000000   0.3333333   0.3333333), wk =   0.0277778
        k(   12) = (   0.0000000   0.3333333  -0.5000000), wk =   0.0277778
        k(   13) = (   0.0000000  -0.5000000   0.0000000), wk =   0.0138889
        k(   14) = (   0.0000000  -0.5000000   0.1666667), wk =   0.0277778
        k(   15) = (   0.0000000  -0.5000000   0.3333333), wk =   0.0277778
        k(   16) = (   0.0000000  -0.5000000  -0.5000000), wk =   0.0138889
        k(   17) = (   0.1666667   0.1666667   0.0000000), wk =   0.0277778
        k(   18) = (   0.1666667   0.1666667   0.1666667), wk =   0.0555556
        k(   19) = (   0.1666667   0.1666667   0.3333333), wk =   0.0555556
        k(   20) = (   0.1666667   0.1666667  -0.5000000), wk =   0.0277778
        k(   21) = (   0.1666667   0.3333333   0.0000000), wk =   0.0555556
        k(   22) = (   0.1666667   0.3333333   0.1666667), wk =   0.0555556
        k(   23) = (   0.1666667   0.3333333   0.3333333), wk =   0.0555556
        k(   24) = (   0.1666667   0.3333333  -0.5000000), wk =   0.0555556
        k(   25) = (   0.3333333   0.3333333   0.0000000), wk =   0.0092593
        k(   26) = (   0.3333333   0.3333333   0.1666667), wk =   0.0185185
        k(   27) = (   0.3333333   0.3333333   0.3333333), wk =   0.0185185
        k(   28) = (   0.3333333   0.3333333  -0.5000000), wk =   0.0092593
        k(   29) = (   0.0000000   0.1666667  -0.1666667), wk =   0.0277778
        k(   30) = (   0.0000000   0.1666667  -0.3333333), wk =   0.0277778
        k(   31) = (   0.0000000   0.3333333  -0.1666667), wk =   0.0277778
        k(   32) = (   0.0000000   0.3333333  -0.3333333), wk =   0.0277778
        k(   33) = (  -0.1666667   0.5000000  -0.1666667), wk =   0.0555556
        k(   34) = (  -0.1666667   0.5000000  -0.3333333), wk =   0.0555556

     Dense  grid:    60223 G-vectors     FFT dimensions: (  48,  48,  72)

     Smooth grid:    32721 G-vectors     FFT dimensions: (  40,  40,  54)

     Dynamical RAM for                 wfc:       1.63 MB

     Dynamical RAM for     wfc (w. buffer):      56.93 MB

     Dynamical RAM for           str. fact:       0.46 MB

     Dynamical RAM for           local pot:       0.00 MB

     Dynamical RAM for          nlocal pot:       3.19 MB

     Dynamical RAM for                qrad:       3.64 MB

     Dynamical RAM for          rho,v,vnew:      13.11 MB

     Dynamical RAM for               rhoin:       4.37 MB

     Dynamical RAM for            rho*nmix:      29.41 MB

     Dynamical RAM for           G-vectors:       1.85 MB

     Dynamical RAM for          h,s,v(r/c):       0.12 MB

     Dynamical RAM for          <psi|beta>:       0.08 MB

     Dynamical RAM for                 psi:       3.25 MB

     Dynamical RAM for                hpsi:       3.25 MB

     Dynamical RAM for                spsi:       3.25 MB

     Dynamical RAM for      wfcinit/wfcrot:       2.46 MB

     Dynamical RAM for           addusdens:     281.66 MB

     Dynamical RAM for         addusstress:     288.55 MB

     Estimated static dynamical RAM per process >      89.53 MB

     Estimated max dynamical RAM per process >     407.48 MB

     Estimated total dynamical RAM >     814.97 MB

     Initial potential from superposition of free atoms

     starting charge      17.9993, renormalised to      18.0000
     Starting wfcs are   24 randomized atomic wfcs +    2 random wfcs

     total cpu time spent up to now is        2.5 secs

     per-process dynamical memory:   106.4 Mb

     Self-consistent Calculation

     iteration #  1     ecut=    50.00 Ry     beta= 0.40
     Davidson diagonalization with overlap

---- Real-time Memory Report at c_bands before calling an iterative solver
           352 MiB given to the printing process from OS
           106 MiB allocation reported by mallinfo(arena+hblkhd)
          2801 MiB available memory on the node where the printing process lives
------------------
     c_bands:  1 eigenvalues not converged
     c_bands:  2 eigenvalues not converged
     c_bands:  1 eigenvalues not converged
     c_bands:  1 eigenvalues not converged
     c_bands:  2 eigenvalues not converged
     c_bands:  2 eigenvalues not converged
     c_bands:  2 eigenvalues not converged
     c_bands:  2 eigenvalues not converged
     c_bands:  2 eigenvalues not converged
     c_bands:  2 eigenvalues not converged
     c_bands:  2 eigenvalues not converged
     c_bands:  2 eigenvalues not converged
     c_bands:  2 eigenvalues not converged
     c_bands:  2 eigenvalues not converged
     c_bands:  2 eigenvalues not converged
     ethr =  1.00E-05,  avg # of iterations = 18.4

     total cpu time spent up to now is       19.1 secs

     total energy              =     -85.64323984 Ry
     estimated scf accuracy    <       0.01526022 Ry

     iteration #  2     ecut=    50.00 Ry     beta= 0.40
     Davidson diagonalization with overlap

---- Real-time Memory Report at c_bands before calling an iterative solver
           434 MiB given to the printing process from OS
           126 MiB allocation reported by mallinfo(arena+hblkhd)
          2747 MiB available memory on the node where the printing process lives
------------------
     ethr =  8.48E-05,  avg # of iterations =  1.1

     total cpu time spent up to now is       24.4 secs

     total energy              =     -85.64304056 Ry
     estimated scf accuracy    <       0.00449483 Ry

     iteration #  3     ecut=    50.00 Ry     beta= 0.40
     Davidson diagonalization with overlap

---- Real-time Memory Report at c_bands before calling an iterative solver
           436 MiB given to the printing process from OS
           128 MiB allocation reported by mallinfo(arena+hblkhd)
          2746 MiB available memory on the node where the printing process lives
------------------
     ethr =  2.50E-05,  avg # of iterations =  1.1

     total cpu time spent up to now is       29.5 secs

     total energy              =     -85.64327997 Ry
     estimated scf accuracy    <       0.00018518 Ry

     iteration #  4     ecut=    50.00 Ry     beta= 0.40
     Davidson diagonalization with overlap

---- Real-time Memory Report at c_bands before calling an iterative solver
           438 MiB given to the printing process from OS
           130 MiB allocation reported by mallinfo(arena+hblkhd)
          2741 MiB available memory on the node where the printing process lives
------------------
     ethr =  1.03E-06,  avg # of iterations =  4.9

     total cpu time spent up to now is       36.3 secs

     total energy              =     -85.64334459 Ry
     estimated scf accuracy    <       0.00000649 Ry

     iteration #  5     ecut=    50.00 Ry     beta= 0.40
     Davidson diagonalization with overlap

---- Real-time Memory Report at c_bands before calling an iterative solver
           440 MiB given to the printing process from OS
           132 MiB allocation reported by mallinfo(arena+hblkhd)
          2734 MiB available memory on the node where the printing process lives
------------------
     ethr =  3.61E-08,  avg # of iterations =  4.0

     total cpu time spent up to now is       43.3 secs

     total energy              =     -85.64334861 Ry
     estimated scf accuracy    <       0.00000202 Ry

     iteration #  6     ecut=    50.00 Ry     beta= 0.40
     Davidson diagonalization with overlap

---- Real-time Memory Report at c_bands before calling an iterative solver
           442 MiB given to the printing process from OS
           134 MiB allocation reported by mallinfo(arena+hblkhd)
          2732 MiB available memory on the node where the printing process lives
------------------
     ethr =  1.12E-08,  avg # of iterations =  2.1

     total cpu time spent up to now is       49.3 secs

     total energy              =     -85.64334889 Ry
     estimated scf accuracy    <       0.00000013 Ry

     iteration #  7     ecut=    50.00 Ry     beta= 0.40
     Davidson diagonalization with overlap

---- Real-time Memory Report at c_bands before calling an iterative solver
           444 MiB given to the printing process from OS
           136 MiB allocation reported by mallinfo(arena+hblkhd)
          2729 MiB available memory on the node where the printing process lives
------------------
     ethr =  7.17E-10,  avg # of iterations =  2.7

     total cpu time spent up to now is       55.3 secs

     total energy              =     -85.64334893 Ry
     estimated scf accuracy    <       0.00000002 Ry

     iteration #  8     ecut=    50.00 Ry     beta= 0.40
     Davidson diagonalization with overlap

---- Real-time Memory Report at c_bands before calling an iterative solver
           446 MiB given to the printing process from OS
           138 MiB allocation reported by mallinfo(arena+hblkhd)
          2729 MiB available memory on the node where the printing process lives
------------------
     ethr =  1.04E-10,  avg # of iterations =  3.2

     total cpu time spent up to now is       61.7 secs

     End of self-consistent calculation

          k = 0.0000 0.0000 0.0000 (  4093 PWs)   bands (ev):

    -7.6512  -7.6512  -4.3002  -4.3002  -4.2988  -4.2988   2.7540   2.7540
     2.9614   2.9614   3.3950   3.3950   4.3483   4.3483   4.3930   4.3930
     5.2615   5.2615   6.6917   6.6917   7.3109   7.3109   7.8311   7.8311
    10.9974  10.9991

     occupation numbers 
     1.0000   1.0000   1.0000   1.0000   1.0000   1.0000   1.0000   1.0000
     1.0000   1.0000   1.0000   1.0000   1.0000   1.0000   1.0000   1.0000
     1.0000   1.0000   0.0000   0.0000   0.0000   0.0000   0.0000   0.0000
     0.0000   0.0000

          k = 0.0000 0.0000 0.1256 (  4129 PWs)   bands (ev):

    -7.5502  -7.5490  -5.2443  -5.2412  -3.3266  -3.3251   2.5432   2.5481
     2.9280   3.1115   3.1998   3.6480   4.3095   4.4064   4.4850   4.5442
     5.1767   5.2830   6.5672   6.5950   7.0770   7.1620   7.5478   7.5640
    10.6725  10.7106

     occupation numbers 
     1.0000   1.0000   1.0000   1.0000   1.0000   1.0000   1.0000   1.0000
     1.0000   1.0000   1.0000   1.0000   1.0000   1.0000   1.0000   1.0000
     1.0000   1.0000   0.0000   0.0000   0.0000   0.0000   0.0000   0.0000
     0.0000   0.0000

          k = 0.0000 0.0000 0.2512 (  4105 PWs)   bands (ev):

    -7.2480  -7.2457  -6.0759  -6.0724  -2.4934  -2.4898   2.0745   2.1166
     3.0823   3.1805   3.2524   3.6682   4.4299   4.5686   4.5849   4.8215
     5.0176   5.2341   6.4359   6.4539   6.7080   6.8812   7.0058   7.0821
    10.2314  10.2496

     occupation numbers 
     1.0000   1.0000   1.0000   1.0000   1.0000   1.0000   1.0000   1.0000
     1.0000   1.0000   1.0000   1.0000   1.0000   1.0000   1.0000   1.0000
     1.0000   1.0000   0.0053   0.0031   0.0000   0.0000   0.0000   0.0000
     0.0000   0.0000

          k = 0.0000 0.0000-0.3768 (  4130 PWs)   bands (ev):

    -6.7520  -6.7520  -6.7489  -6.7489  -2.1289  -2.1289   1.8507   1.8507
     3.1810   3.1810   3.4684   3.4684   4.5718   4.5718   4.8006   4.8006
     5.0804   5.0804   6.4766   6.4766   6.5756   6.5756   6.8038   6.8038
    10.0503  10.0504

     occupation numbers 
     1.0000   1.0000   1.0000   1.0000   1.0000   1.0000   1.0000   1.0000
     1.0000   1.0000   1.0000   1.0000   1.0000   1.0000   1.0000   1.0000
     1.0000   1.0000   0.0015   0.0015   0.0000   0.0000   0.0000   0.0000
     0.0000   0.0000

          k = 0.0000 0.1925 0.0000 (  4123 PWs)   bands (ev):

    -7.4708  -7.4705  -4.3671  -4.3613  -4.2486  -4.2444   1.7608   1.8575
     2.3318   2.4817   2.8215   3.0584   4.5749   4.7470   4.9566   5.0451
     5.2304   5.3446   6.7901   6.8734   7.0278   7.1152   7.5844   7.6859
    10.4252  10.4659

     occupation numbers 
     1.0000   1.0000   1.0000   1.0000   1.0000   1.0000   1.0000   1.0000
     1.0000   1.0000   1.0000   1.0000   1.0000   1.0000   1.0000   1.0000
     1.0000   1.0000   0.0000   0.0000   0.0000   0.0000   0.0000   0.0000
     0.0000   0.0000

          k = 0.0000 0.1925 0.1256 (  4122 PWs)   bands (ev):

    -7.3712  -7.3697  -5.1853  -5.1820  -3.4284  -3.4256   1.8563   1.9319
     2.0300   2.1622   2.9186   3.1076   4.6795   4.8119   4.9901   5.1870
     5.3842   5.4782   6.6400   6.6682   6.8145   6.9531   7.4540   7.5141
    10.0174  10.0262

     occupation numbers 
     1.0000   1.0000   1.0000   1.0000   1.0000   1.0000   1.0000   1.0000
     1.0000   1.0000   1.0000   1.0000   1.0000   1.0000   1.0000   1.0000
     1.0000   1.0000   0.0000   0.0000   0.0000   0.0000   0.0000   0.0000
     0.0000   0.0000

          k = 0.0000 0.1925 0.2512 (  4116 PWs)   bands (ev):

    -7.0764  -7.0737  -5.9618  -5.9578  -2.7621  -2.7577   1.7192   1.8136
     2.1989   2.3765   3.0222   3.2038   4.4802   4.5516   4.6945   4.7957
     4.9647   5.0635   6.6840   6.7950   7.0103   7.1651   7.7285   7.7418
    10.0447  10.0714

     occupation numbers 
     1.0000   1.0000   1.0000   1.0000   1.0000   1.0000   1.0000   1.0000
     1.0000   1.0000   1.0000   1.0000   1.0000   1.0000   1.0000   1.0000
     1.0000   1.0000   0.0000   0.0000   0.0000   0.0000   0.0000   0.0000
     0.0000   0.0000

          k = 0.0000 0.1925-0.3768 (  4098 PWs)   bands (ev):

    -6.6184  -6.6166  -6.5796  -6.5782  -2.5185  -2.5177   1.6879   1.7701
     2.6593   2.9048   2.9771   3.1480   3.9525   4.1822   4.2827   4.4352
     4.6413   4.8387   6.8160   6.9614   7.3821   7.5205   7.9288   7.9343
    10.4697  10.4917

     occupation numbers 
     1.0000   1.0000   1.0000   1.0000   1.0000   1.0000   1.0000   1.0000
     1.0000   1.0000   1.0000   1.0000   1.0000   1.0000   1.0000   1.0000
     1.0000   1.0000   0.0000   0.0000   0.0000   0.0000   0.0000   0.0000
     0.0000   0.0000

          k = 0.0000 0.3849 0.0000 (  4094 PWs)   bands (ev):

    -7.0033  -7.0026  -4.6794  -4.6739  -4.1294  -4.1254   1.0619   1.1182
     1.6448   1.8086   2.3419   2.5580   3.5462   3.6213   4.8629   5.0129
     5.0981   5.2451   6.9057   7.0109   7.1362   7.1749   8.8287   8.8452
     9.4068   9.4364

     occupation numbers 
     1.0000   1.0000   1.0000   1.0000   1.0000   1.0000   1.0000   1.0000
     1.0000   1.0000   1.0000   1.0000   1.0000   1.0000   1.0000   1.0000
     1.0000   1.0000   0.0000   0.0000   0.0000   0.0000   0.0000   0.0000
     0.0000   0.0000

          k = 0.0000 0.3849 0.1256 (  4098 PWs)   bands (ev):

    -6.9063  -6.9037  -5.1585  -5.1540  -3.6925  -3.6860   0.9062   0.9345
     1.4004   1.5005   2.4601   2.5992   4.2633   4.5199   4.7377   5.0196
     5.0343   5.2362   6.8374   6.8952   7.3227   7.4291   7.9465   7.9732
     9.3380   9.4000

     occupation numbers 
     1.0000   1.0000   1.0000   1.0000   1.0000   1.0000   1.0000   1.0000
     1.0000   1.0000   1.0000   1.0000   1.0000   1.0000   1.0000   1.0000
     1.0000   1.0000   0.0000   0.0000   0.0000   0.0000   0.0000   0.0000
     0.0000   0.0000

          k = 0.0000 0.3849 0.2512 (  4107 PWs)   bands (ev):

    -6.6362  -6.6313  -5.7317  -5.7253  -3.3870  -3.3806   0.7395   0.7839
     1.6410   1.7601   2.6078   2.7228   3.9875   4.1492   4.3714   4.4736
     5.8130   5.8659   6.7081   6.7793   7.3487   7.4843   7.8344   8.1790
     9.8221   9.9607

     occupation numbers 
     1.0000   1.0000   1.0000   1.0000   1.0000   1.0000   1.0000   1.0000
     1.0000   1.0000   1.0000   1.0000   1.0000   1.0000   1.0000   1.0000
     1.0000   0.9996   0.0000   0.0000   0.0000   0.0000   0.0000   0.0000
     0.0000   0.0000

          k = 0.0000 0.3849-0.3768 (  4106 PWs)   bands (ev):

    -6.3178  -6.3159  -6.1322  -6.1301  -3.3550  -3.3535   0.8306   0.8722
     2.1486   2.2736   2.5073   2.6219   3.7336   3.7986   4.0288   4.1071
     4.9983   5.0939   7.2671   7.4706   7.9385   8.0467   8.3220   8.5396
    10.4960  10.6474

     occupation numbers 
     1.0000   1.0000   1.0000   1.0000   1.0000   1.0000   1.0000   1.0000
     1.0000   1.0000   1.0000   1.0000   1.0000   1.0000   1.0000   1.0000
     1.0000   1.0000   0.0000   0.0000   0.0000   0.0000   0.0000   0.0000
     0.0000   0.0000

          k = 0.0000-0.5774 0.0000 (  4090 PWs)   bands (ev):

    -6.6522  -6.6522  -4.9954  -4.9954  -4.0611  -4.0611   1.0405   1.0405
     1.5378   1.5378   2.3732   2.3732   2.5826   2.5826   4.8521   4.8521
     5.1405   5.1405   6.9581   6.9581   7.0740   7.0740   9.0297   9.0297
     9.7880   9.7880

     occupation numbers 
     1.0000   1.0000   1.0000   1.0000   1.0000   1.0000   1.0000   1.0000
     1.0000   1.0000   1.0000   1.0000   1.0000   1.0000   1.0000   1.0000
     1.0000   1.0000   0.0000   0.0000   0.0000   0.0000   0.0000   0.0000
     0.0000   0.0000

          k = 0.0000-0.5774 0.1256 (  4086 PWs)   bands (ev):

    -6.5771  -6.5733  -5.1578  -5.1535  -4.0101  -4.0019   0.9965   1.0363
     1.2054   1.3168   2.2978   2.4568   3.2198   3.3999   4.4879   4.6579
     4.8075   4.8902   6.9484   6.9926   7.5335   7.7596   9.2296   9.2518
     9.3909   9.5033

     occupation numbers 
     1.0000   1.0000   1.0000   1.0000   1.0000   1.0000   1.0000   1.0000
     1.0000   1.0000   1.0000   1.0000   1.0000   1.0000   1.0000   1.0000
     1.0000   1.0000   0.0000   0.0000   0.0000   0.0000   0.0000   0.0000
     0.0000   0.0000

          k = 0.0000-0.5774 0.2512 (  4090 PWs)   bands (ev):

    -6.3630  -6.3563  -5.5167  -5.5089  -3.9162  -3.9090   0.4772   0.5078
     1.6495   1.7589   2.4118   2.5262   3.6434   3.9194   4.1011   4.2950
     4.8027   4.9943   7.3071   7.4046   7.9307   8.0035   8.3147   8.6480
    10.1218  10.3422

     occupation numbers 
     1.0000   1.0000   1.0000   1.0000   1.0000   1.0000   1.0000   1.0000
     1.0000   1.0000   1.0000   1.0000   1.0000   1.0000   1.0000   1.0000
     1.0000   1.0000   0.0000   0.0000   0.0000   0.0000   0.0000   0.0000
     0.0000   0.0000

          k = 0.0000-0.5774-0.3768 (  4076 PWs)   bands (ev):

    -6.1436  -6.1436  -5.7917  -5.7917  -3.8700  -3.8700   0.2904   0.2904
     2.1761   2.1761   2.3056   2.3056   3.5946   3.5946   3.9594   3.9594
     5.8357   5.8357   6.8010   6.8010   7.8492   7.8492   8.6978   8.6978
    10.5990  10.5990

     occupation numbers 
     1.0000   1.0000   1.0000   1.0000   1.0000   1.0000   1.0000   1.0000
     1.0000   1.0000   1.0000   1.0000   1.0000   1.0000   1.0000   1.0000
     0.9999   0.9999   0.0000   0.0000   0.0000   0.0000   0.0000   0.0000
     0.0000   0.0000

          k = 0.1667 0.2887 0.0000 (  4093 PWs)   bands (ev):

    -7.1424  -7.1418  -4.5023  -4.4920  -4.2369  -4.2282   1.2524   1.3678
     1.5196   1.6293   2.8848   3.0487   4.0602   4.2167   4.3511   4.4206
     4.8213   4.8695   7.5457   7.5838   7.6349   7.6704   7.9900   8.0065
    10.2879  10.2937

     occupation numbers 
     1.0000   1.0000   1.0000   1.0000   1.0000   1.0000   1.0000   1.0000
     1.0000   1.0000   1.0000   1.0000   1.0000   1.0000   1.0000   1.0000
     1.0000   1.0000   0.0000   0.0000   0.0000   0.0000   0.0000   0.0000
     0.0000   0.0000

          k = 0.1667 0.2887 0.1256 (  4097 PWs)   bands (ev):

    -7.0504  -7.0483  -5.0805  -5.0765  -3.7246  -3.7192   1.2595   1.3235
     1.6878   1.7469   2.7912   2.9282   3.6262   3.7200   4.3962   4.5139
     5.4516   5.5175   6.9159   6.9850   7.6776   7.7213   8.2965   8.3293
    10.2624  10.2936

     occupation numbers 
     1.0000   1.0000   1.0000   1.0000   1.0000   1.0000   1.0000   1.0000
     1.0000   1.0000   1.0000   1.0000   1.0000   1.0000   1.0000   1.0000
     1.0000   1.0000   0.0000   0.0000   0.0000   0.0000   0.0000   0.0000
     0.0000   0.0000

          k = 0.1667 0.2887 0.2512 (  4105 PWs)   bands (ev):

    -6.7779  -6.7740  -5.7512  -5.7460  -3.2802  -3.2742   1.2703   1.3636
     1.7802   1.9156   2.6279   2.7430   3.3224   3.5037   4.8530   4.9792
     5.2041   5.3209   6.8509   6.9039   7.6815   7.6936   8.4825   8.5372
    10.4496  10.4705

     occupation numbers 
     1.0000   1.0000   1.0000   1.0000   1.0000   1.0000   1.0000   1.0000
     1.0000   1.0000   1.0000   1.0000   1.0000   1.0000   1.0000   1.0000
     1.0000   1.0000   0.0000   0.0000   0.0000   0.0000   0.0000   0.0000
     0.0000   0.0000

          k = 0.1667 0.2887-0.3768 (  4104 PWs)   bands (ev):

    -6.3820  -6.3790  -6.2848  -6.2818  -3.1123  -3.1108   1.2485   1.3459
     2.0732   2.0851   2.1994   2.3028   3.8995   4.0606   4.4664   4.5002
     5.1632   5.2483   6.7607   6.8400   8.1458   8.1622   8.3539   8.3760
    10.6493  10.6899

     occupation numbers 
     1.0000   1.0000   1.0000   1.0000   1.0000   1.0000   1.0000   1.0000
     1.0000   1.0000   1.0000   1.0000   1.0000   1.0000   1.0000   1.0000
     1.0000   1.0000   0.0000   0.0000   0.0000   0.0000   0.0000   0.0000
     0.0000   0.0000

          k = 0.1667 0.4811 0.0000 (  4106 PWs)   bands (ev):

    -6.6784  -6.6776  -4.8117  -4.8055  -4.2545  -4.2489   1.1107   1.1835
     1.3834   1.4925   2.4609   2.6588   2.9642   3.0858   3.9976   4.0861
     4.2410   4.2817   7.7837   7.8207   8.1436   8.1572   9.2799   9.2901
     9.8929   9.9107

     occupation numbers 
     1.0000   1.0000   1.0000   1.0000   1.0000   1.0000   1.0000   1.0000
     1.0000   1.0000   1.0000   1.0000   1.0000   1.0000   1.0000   1.0000
     1.0000   1.0000   0.0000   0.0000   0.0000   0.0000   0.0000   0.0000
     0.0000   0.0000

          k = 0.1667 0.4811 0.1256 (  4095 PWs)   bands (ev):

    -6.5942  -6.5904  -5.1142  -5.1089  -4.0254  -4.0165   0.8402   0.8734
     1.3458   1.4485   2.3810   2.5125   3.1927   3.3601   4.0717   4.2043
     4.8939   5.0152   7.3387   7.4021   8.3722   8.4042   8.5271   8.5955
    10.0403  10.0959

     occupation numbers 
     1.0000   1.0000   1.0000   1.0000   1.0000   1.0000   1.0000   1.0000
     1.0000   1.0000   1.0000   1.0000   1.0000   1.0000   1.0000   1.0000
     1.0000   1.0000   0.0000   0.0000   0.0000   0.0000   0.0000   0.0000
     0.0000   0.0000

          k = 0.1667 0.4811 0.2512 (  4088 PWs)   bands (ev):

    -6.3587  -6.3518  -5.5584  -5.5501  -3.8262  -3.8183   0.5729   0.6158
     1.3215   1.3972   2.1155   2.1889   3.4434   3.5703   5.0073   5.2137
     5.5804   5.8342   6.7165   6.7773   7.4765   7.5469   8.5494   8.6630
    10.3619  10.4412

     occupation numbers 
     1.0000   1.0000   1.0000   1.0000   1.0000   1.0000   1.0000   1.0000
     1.0000   1.0000   1.0000   1.0000   1.0000   1.0000   1.0000   1.0000
     1.0000   0.9999   0.0000   0.0000   0.0000   0.0000   0.0000   0.0000
     0.0000   0.0000

          k = 0.1667 0.4811-0.3768 (  4086 PWs)   bands (ev):

    -6.0952  -6.0929  -5.8803  -5.8773  -3.7814  -3.7797   0.5592   0.5869
     1.5015   1.5305   1.6450   1.7273   4.2897   4.3924   4.7827   4.8220
     5.6024   5.6752   6.9181   7.0218   7.5969   7.6615   8.2262   8.2749
    10.8396  10.8754

     occupation numbers 
     1.0000   1.0000   1.0000   1.0000   1.0000   1.0000   1.0000   1.0000
     1.0000   1.0000   1.0000   1.0000   1.0000   1.0000   1.0000   1.0000
     1.0000   1.0000   0.0000   0.0000   0.0000   0.0000   0.0000   0.0000
     0.0000   0.0000

          k = 0.3333 0.5774 0.0000 (  4104 PWs)   bands (ev):

    -6.4835  -6.4835  -4.6341  -4.6310  -4.6310  -4.6192   1.2537   1.4413
     1.4413   1.4566   2.7899   2.7899   2.8854   3.0876   3.0876   3.1166
     3.4740   3.4740   8.7822   8.8236   8.9901   8.9901   9.2386   9.2386
    10.8819  10.8819

     occupation numbers 
     1.0000   1.0000   1.0000   1.0000   1.0000   1.0000   1.0000   1.0000
     1.0000   1.0000   1.0000   1.0000   1.0000   1.0000   1.0000   1.0000
     1.0000   1.0000   0.0000   0.0000   0.0000   0.0000   0.0000   0.0000
     0.0000   0.0000

          k = 0.3333 0.5774 0.1256 (  4101 PWs)   bands (ev):

    -6.4105  -6.4058  -5.0268  -5.0230  -4.2995  -4.2893   0.9523   0.9670
     1.3381   1.5048   2.1515   2.2599   2.8794   3.0636   3.8892   3.9315
     4.2725   4.4665   8.2580   8.4143   8.7150   8.8365   8.8472   8.8766
    11.0781  11.1270

     occupation numbers 
     1.0000   1.0000   1.0000   1.0000   1.0000   1.0000   1.0000   1.0000
     1.0000   1.0000   1.0000   1.0000   1.0000   1.0000   1.0000   1.0000
     1.0000   1.0000   0.0000   0.0000   0.0000   0.0000   0.0000   0.0000
     0.0000   0.0000

          k = 0.3333 0.5774 0.2512 (  4107 PWs)   bands (ev):

    -6.1950  -6.1864  -5.4548  -5.4455  -4.0607  -4.0517   0.7637   0.8184
     0.9330   0.9931   1.4138   1.5255   3.9303   4.0625   4.9815   5.1356
     5.3283   5.6199   7.1404   7.2541   7.9455   8.0372   8.1502   8.1791
    11.7164  11.7258

     occupation numbers 
     1.0000   1.0000   1.0000   1.0000   1.0000   1.0000   1.0000   1.0000
     1.0000   1.0000   1.0000   1.0000   1.0000   1.0000   1.0000   1.0000
     1.0000   1.0000   0.0000   0.0000   0.0000   0.0000   0.0000   0.0000
     0.0000   0.0000

          k = 0.3333 0.5774-0.3768 (  4116 PWs)   bands (ev):

    -5.8621  -5.8621  -5.8552  -5.8479  -3.9665  -3.9665   0.7543   0.7543
     0.9039   0.9572   1.0306   1.0306   4.8647   4.8647   5.8392   5.8392
     6.0890   6.2148   6.2148   6.2292   7.3577   7.4237   7.5888   7.5888
    11.9183  11.9183

     occupation numbers 
     1.0000   1.0000   1.0000   1.0000   1.0000   1.0000   1.0000   1.0000
     1.0000   1.0000   1.0000   1.0000   1.0000   1.0000   0.9999   0.9999
     0.8533   0.3985   0.3985   0.3423   0.0000   0.0000   0.0000   0.0000
     0.0000   0.0000

          k = 0.0000 0.1925-0.1256 (  4122 PWs)   bands (ev):

    -7.3738  -7.3723  -5.1574  -5.1541  -3.4863  -3.4835   1.8302   1.9189
     2.5496   2.7420   2.8287   3.1868   4.2796   4.3318   4.4235   4.6040
     4.8485   5.0380   7.0358   7.1362   7.4291   7.5542   7.8286   7.9282
    10.7137  10.7548

     occupation numbers 
     1.0000   1.0000   1.0000   1.0000   1.0000   1.0000   1.0000   1.0000
     1.0000   1.0000   1.0000   1.0000   1.0000   1.0000   1.0000   1.0000
     1.0000   1.0000   0.0000   0.0000   0.0000   0.0000   0.0000   0.0000
     0.0000   0.0000

          k = 0.0000 0.1925-0.2512 (  4116 PWs)   bands (ev):

    -7.0823  -7.0796  -5.9444  -5.9405  -2.8138  -2.8093   1.8464   1.9158
     2.6697   2.8322   3.0889   3.3335   3.7641   3.9877   4.1948   4.2841
     4.6698   4.8211   7.0577   7.1004   7.6870   7.7782   7.8451   7.9097
    10.6555  10.6742

     occupation numbers 
     1.0000   1.0000   1.0000   1.0000   1.0000   1.0000   1.0000   1.0000
     1.0000   1.0000   1.0000   1.0000   1.0000   1.0000   1.0000   1.0000
     1.0000   1.0000   0.0000   0.0000   0.0000   0.0000   0.0000   0.0000
     0.0000   0.0000

          k = 0.0000 0.3849-0.1256 (  4098 PWs)   bands (ev):

    -6.9237  -6.9213  -4.9964  -4.9925  -3.9492  -3.9430   1.3385   1.4528
     1.8317   1.9526   2.5652   2.8006   2.8231   3.0527   4.3899   4.6445
     4.8311   4.9971   7.0294   7.1319   7.7222   7.9630   9.2324   9.2457
     9.9991  10.1141

     occupation numbers 
     1.0000   1.0000   1.0000   1.0000   1.0000   1.0000   1.0000   1.0000
     1.0000   1.0000   1.0000   1.0000   1.0000   1.0000   1.0000   1.0000
     1.0000   1.0000   0.0000   0.0000   0.0000   0.0000   0.0000   0.0000
     0.0000   0.0000

          k = 0.0000 0.3849-0.2512 (  4107 PWs)   bands (ev):

    -6.6742  -6.6701  -5.6196  -5.6142  -3.5769  -3.5706   1.2118   1.2863
     1.9763   2.1359   2.5757   2.7192   3.3277   3.6881   3.9396   4.1042
     4.4406   4.6640   7.4444   7.5017   8.2720   8.4354   8.9213   8.9357
    10.6303  10.7432

     occupation numbers 
     1.0000   1.0000   1.0000   1.0000   1.0000   1.0000   1.0000   1.0000
     1.0000   1.0000   1.0000   1.0000   1.0000   1.0000   1.0000   1.0000
     1.0000   1.0000   0.0000   0.0000   0.0000   0.0000   0.0000   0.0000
     0.0000   0.0000

          k =-0.1667 0.4811-0.1256 (  4095 PWs)   bands (ev):

    -6.6052  -6.6015  -5.0278  -5.0228  -4.1396  -4.1305   1.0328   1.0845
     1.4364   1.5106   2.4162   2.5805   2.8350   3.2103   3.6672   3.8609
     5.1244   5.1880   7.1946   7.2533   8.2589   8.3123   9.3341   9.3582
    10.1488  10.2054

     occupation numbers 
     1.0000   1.0000   1.0000   1.0000   1.0000   1.0000   1.0000   1.0000
     1.0000   1.0000   1.0000   1.0000   1.0000   1.0000   1.0000   1.0000
     1.0000   1.0000   0.0000   0.0000   0.0000   0.0000   0.0000   0.0000
     0.0000   0.0000

          k =-0.1667 0.4811-0.2512 (  4088 PWs)   bands (ev):

    -6.3822  -6.3760  -5.4913  -5.4839  -3.9092  -3.9013   0.8243   0.8980
     1.2197   1.2866   2.0712   2.1459   3.5583   3.7675   4.4684   4.6085
     5.3790   5.5101   6.9785   7.0073   8.1282   8.1973   8.6270   8.6689
    10.6214  10.6677

     occupation numbers 
     1.0000   1.0000   1.0000   1.0000   1.0000   1.0000   1.0000   1.0000
     1.0000   1.0000   1.0000   1.0000   1.0000   1.0000   1.0000   1.0000
     1.0000   1.0000   0.0000   0.0000   0.0000   0.0000   0.0000   0.0000
     0.0000   0.0000

     the Fermi energy is     6.1901 ev

!    total energy              =     -85.64334893 Ry
     estimated scf accuracy    <          4.1E-09 Ry
     smearing contrib. (-TS)   =      -0.00009220 Ry
     internal energy E=F+TS    =     -85.64325673 Ry

     The total energy is F=E-TS. E is the sum of the following terms:
     one-electron contribution =      10.21276380 Ry
     hartree contribution      =       3.36902907 Ry
     xc contribution           =     -49.70743148 Ry
     ewald contribution        =     -49.51761811 Ry

     convergence has been achieved in   8 iterations


     Computing stress (Cartesian axis) and pressure

          total   stress  (Ry/bohr**3)                   (kbar)     P=       25.77
   0.00014966  -0.00000000  -0.00000000           22.02       -0.00       -0.00
  -0.00000000   0.00014966  -0.00000000           -0.00       22.02       -0.00
   0.00000000   0.00000000   0.00022624            0.00        0.00       33.28

     kinetic stress (kbar)   2346.28      0.00      0.00
                                0.00   2346.28      0.00
                                0.00      0.00   2220.90

     local   stress (kbar)    158.35     -0.00     -0.00
                               -0.00    158.35      0.00
                               -0.00      0.00   -571.77

     nonloc. stress (kbar)   2375.79      0.00     -0.00
                                0.00   2375.80     -0.00
                               -0.00     -0.00   2366.10

     hartree stress (kbar)    181.72     -0.00     -0.00
                               -0.00    181.72     -0.00
                               -0.00     -0.00    358.31

     exc-cor stress (kbar)   7012.94      0.00      0.00
                                0.00   7012.94     -0.00
                                0.00     -0.00   7015.30

     corecor stress (kbar)  -8287.23     -0.00     -0.00
                               -0.00  -8287.23      0.00
                               -0.00      0.00  -8279.08

     ewald   stress (kbar)  -3765.84      0.00      0.00
                                0.00  -3765.84     -0.00
                                0.00     -0.00  -3076.49

     hubbard stress (kbar)      0.00      0.00      0.00
                                0.00      0.00      0.00
                                0.00      0.00      0.00

     DFT-D   stress (kbar)      0.00      0.00      0.00
                                0.00      0.00      0.00
                                0.00      0.00      0.00

     XDM     stress (kbar)      0.00      0.00      0.00
                                0.00      0.00      0.00
                                0.00      0.00      0.00

     dft-nl  stress (kbar)      0.00      0.00      0.00
                                0.00      0.00      0.00
                                0.00      0.00      0.00

     TS-vdW  stress (kbar)      0.00      0.00      0.00
                                0.00      0.00      0.00
                                0.00      0.00      0.00

     MDB     stress (kbar)      0.00      0.00      0.00
                                0.00      0.00      0.00
                                0.00      0.00      0.00

     3D-RISM stress (kbar)      0.00      0.00      0.00
                                0.00      0.00      0.00
                                0.00      0.00      0.00


     Writing all to output data dir /home/user/workspace/qe_runs/strain_clamp_m0025/out/teclamp_m0025.save/ :
     XML data file, charge density, pseudopotentials, collected wavefunctions

     init_run     :      2.25s CPU      2.41s WALL (       1 calls)
     electrons    :     55.97s CPU     59.13s WALL (       1 calls)
     stress       :      4.38s CPU      4.69s WALL (       1 calls)

     Called by init_run:
     wfcinit      :      1.31s CPU      1.36s WALL (       1 calls)
     wfcinit:atom :      0.01s CPU      0.01s WALL (      34 calls)
     wfcinit:wfcr :      1.24s CPU      1.29s WALL (      34 calls)
     potinit      :      0.18s CPU      0.19s WALL (       1 calls)
     hinit0       :      0.47s CPU      0.48s WALL (       1 calls)

     Called by electrons:
     c_bands      :     45.51s CPU     46.66s WALL (       8 calls)
     sum_band     :      8.13s CPU      9.32s WALL (       8 calls)
     v_of_rho     :      0.23s CPU      0.24s WALL (       9 calls)
     v_h          :      0.01s CPU      0.01s WALL (       9 calls)
     v_xc         :      0.23s CPU      0.25s WALL (      10 calls)
     newd         :      2.23s CPU      3.10s WALL (       9 calls)
     mix_rho      :      0.10s CPU      0.11s WALL (       8 calls)

     Called by c_bands:
     init_us_2    :      0.56s CPU      0.57s WALL (     612 calls)
     cegterg      :     38.63s CPU     39.73s WALL (     272 calls)

     Called by sum_band:
     sum_band:wei :      0.01s CPU      0.01s WALL (       8 calls)
     sum_band:loo :      6.07s CPU      6.21s WALL (       8 calls)
     sum_band:buf :      0.07s CPU      0.07s WALL (     272 calls)
     sum_band:ini :      0.24s CPU      0.24s WALL (     272 calls)
     sum_band:cal :      0.53s CPU      0.55s WALL (     272 calls)
     sum_band:bec :      0.63s CPU      0.64s WALL (     272 calls)
     addusdens    :      1.99s CPU      3.04s WALL (       8 calls)
                                        0.00s GPU  (       8 calls)
     addusd:skk   :      0.00s CPU      0.00s WALL (       8 calls)
                                        0.00s GPU  (       8 calls)

     Called by *egterg:
     cdiaghg      :      1.11s CPU      1.12s WALL (    1549 calls)
     cegterg:over :      1.69s CPU      1.71s WALL (    1277 calls)
     cegterg:upda :      0.96s CPU      0.97s WALL (    1277 calls)
     cegterg:last :      1.89s CPU      1.91s WALL (     768 calls)
     h_psi        :     31.11s CPU     32.18s WALL (    1583 calls)
     s_psi        :      1.79s CPU      1.80s WALL (    1583 calls)
     g_psi        :      0.35s CPU      0.35s WALL (    1277 calls)

     Called by h_psi:
     h_psi:calbec :      2.06s CPU      2.13s WALL (    1583 calls)
     vloc_psi     :     27.10s CPU     28.06s WALL (    1583 calls)
                                        0.00s GPU  (    1583 calls)
     add_vuspsi   :      1.77s CPU      1.81s WALL (    1583 calls)

     General routines
     calbec       :      3.47s CPU      3.55s WALL (    2297 calls)
     fft          :      0.37s CPU      0.38s WALL (     228 calls)
     ffts         :      0.16s CPU      0.16s WALL (      68 calls)
     fftw         :     27.23s CPU     28.16s WALL (  112120 calls)
     interpolate  :      0.18s CPU      0.18s WALL (      36 calls)

     Parallel routines

     PWSCF        :   1m 2.78s CPU   1m 6.49s WALL


   This run was terminated on:   7:44: 2  20Aug2026            

=------------------------------------------------------------------------------=
   JOB DONE.
=------------------------------------------------------------------------------=
