
     Program PWSCF v.7.5 starts on 20Aug2026 at  7:41:39 

     This program is part of the open-source Quantum ESPRESSO suite
     for quantum simulation of materials; please cite
         "P. Giannozzi et al., J. Phys.:Condens. Matter 21 395502 (2009);
         "P. Giannozzi et al., J. Phys.:Condens. Matter 29 465901 (2017);
         "P. Giannozzi et al., J. Chem. Phys. 152 154105 (2020);
          URL http://www.quantum-espresso.org", 
     in publications or presentations arising from this work. More details at
     http://www.quantum-espresso.org/quote

     Parallel version (MPI & OpenMP), running on       2 processor cores
     Number of MPI processes:                 2
     Threads/MPI process:                     1

     MPI processes distributed on     1 nodes
     3143 MiB available memory on the printing compute node when the environment starts

     Reading input from strain_clamp_m0050/scf.in

     Current dimensions of program PWSCF are:
     Max number of different atomic species (ntypx) = 10
     Max number of k-points (npk) =  40000
     Max angular momentum in pseudopotentials (lmaxx) =  4
     file Te.rel-pbe-n-rrkjus_psl.1.0.0.UPF: wavefunction(s)  5S renormalized
     Message from routine setup:
     using ibrav=0 with symmetry is DISCOURAGED, use correct ibrav instead

     R & G space division:  proc/nbgrp/npool/nimage =       2
     Subspace diagonalization in iterative solution of the eigenvalue problem:
     a serial algorithm will be used


     Parallelization info
     --------------------
     sticks:   dense  smooth     PW     G-vecs:    dense   smooth      PW
     Min         741     483    141                30099    16324    2565
     Max         742     484    142                30100    16325    2568
     Sum        1483     967    283                60199    32649    5133

     Using Slab Decomposition



     bravais-lattice index     =            0
     lattice parameter (alat)  =       8.4229  a.u.
     unit-cell volume          =     684.9506 (a.u.)^3
     number of atoms/cell      =            3
     number of atomic types    =            1
     number of electrons       =        18.00
     number of Kohn-Sham states=           26
     kinetic-energy cutoff     =      50.0000  Ry
     charge density cutoff     =     300.0000  Ry
     scf convergence threshold =      1.0E-08
     mixing beta               =       0.4000
     number of iterations used =            8  plain     mixing
     Exchange-correlation= PBE
                           (   1   4   3   4   0   0   0)
     Non magnetic calculation with spin-orbit


     celldm(1)=   8.422887  celldm(2)=   0.000000  celldm(3)=   0.000000
     celldm(4)=   0.000000  celldm(5)=   0.000000  celldm(6)=   0.000000

     crystal axes: (cart. coord. in units of alat)
               a(1) = (   1.000000   0.000000   0.000000 )  
               a(2) = (  -0.500000   0.866025   0.000000 )  
               a(3) = (   0.000000   0.000000   1.323566 )  

     reciprocal axes: (cart. coord. in units 2 pi/alat)
               b(1) = (  1.000000  0.577350 -0.000000 )  
               b(2) = (  0.000000  1.154701  0.000000 )  
               b(3) = (  0.000000 -0.000000  0.755534 )  


     PseudoPot. # 1 for Te read from file:
     /home/user/workspace/qe_runs/pseudo/Te.rel-pbe-n-rrkjus_psl.1.0.0.UPF
     MD5 check sum: 7fd30b6833abd190471e4dcc2367351b
     Pseudo is Ultrasoft + core correction, Zval =  6.0
     Generated using &quot;atomic&quot; code by A. Dal Corso  v.6.3
     Using radial grid of 1245 points, 10 beta functions with: 
                l(1) =   0
                l(2) =   0
                l(3) =   1
                l(4) =   1
                l(5) =   1
                l(6) =   1
                l(7) =   2
                l(8) =   2
                l(9) =   2
               l(10) =   2
     Q(r) pseudized with 0 coefficients 


     atomic species   valence    mass     pseudopotential
     Te                6.00   127.60000     Te( 1.00)

      6 Sym. Ops. (no inversion) found ( 4 have fractional translation)


                                    s                        frac. trans.

      isym =  1     identity                                     

 cryst.   s( 1) = (     1          0          0      )
                  (     0          1          0      )
                  (     0          0          1      )

 cart.    s( 1) = (  1.0000000  0.0000000  0.0000000 )
                  (  0.0000000  1.0000000  0.0000000 )
                  (  0.0000000  0.0000000  1.0000000 )


      isym =  2     180 deg rotation - cart. axis [1,0,0]        

 cryst.   s( 2) = (     1          0          0      )    f =(  0.0000000 )
                  (    -1         -1          0      )       (  0.0000000 )
                  (     0          0         -1      )       (  0.3333334 )

 cart.    s( 2) = (  1.0000000  0.0000000  0.0000000 )    f =(  0.0000000 )
                  (  0.0000000 -1.0000000  0.0000000 )       (  0.0000000 )
                  (  0.0000000  0.0000000 -1.0000000 )       (  0.4411889 )


      isym =  3     120 deg rotation - cryst. axis [0,0,1]       

 cryst.   s( 3) = (     0          1          0      )    f =( -0.0000000 )
                  (    -1         -1          0      )       (  0.0000000 )
                  (     0          0          1      )       ( -0.3333333 )

 cart.    s( 3) = ( -0.5000000 -0.8660255  0.0000000 )    f =( -0.0000000 )
                  (  0.8660253 -0.5000000  0.0000000 )       (  0.0000000 )
                  (  0.0000000  0.0000000  1.0000000 )       ( -0.4411887 )


      isym =  4     120 deg rotation - cryst. axis [0,0,-1]      

 cryst.   s( 4) = (    -1         -1          0      )    f =( -0.0000000 )
                  (     1          0          0      )       (  0.0000000 )
                  (     0          0          1      )       (  0.3333334 )

 cart.    s( 4) = ( -0.5000000  0.8660255  0.0000000 )    f =( -0.0000000 )
                  ( -0.8660253 -0.5000000  0.0000000 )       (  0.0000000 )
                  (  0.0000000  0.0000000  1.0000000 )       (  0.4411889 )


      isym =  5     180 deg rotation - cryst. axis [0,1,0]       

 cryst.   s( 5) = (    -1         -1          0      )    f =( -0.0000000 )
                  (     0          1          0      )       (  0.0000000 )
                  (     0          0         -1      )       ( -0.3333333 )

 cart.    s( 5) = ( -0.5000000 -0.8660255  0.0000000 )    f =( -0.0000000 )
                  ( -0.8660253  0.5000000  0.0000000 )       (  0.0000000 )
                  (  0.0000000  0.0000000 -1.0000000 )       ( -0.4411887 )


      isym =  6     180 deg rotation - cryst. axis [1,1,0]       

 cryst.   s( 6) = (     0          1          0      )
                  (     1          0          0      )
                  (     0          0         -1      )

 cart.    s( 6) = ( -0.5000000  0.8660255  0.0000000 )
                  (  0.8660253  0.5000000  0.0000000 )
                  (  0.0000000  0.0000000 -1.0000000 )


   Cartesian axes

     site n.     atom                  positions (alat units)
         1        Te     tau(   1) = (   0.2636000   0.0000000   0.4411887  )
         2        Te     tau(   2) = (  -0.1318000   0.2282843   0.8823776  )
         3        Te     tau(   3) = (  -0.1318000  -0.2282843   0.0000000  )

   Crystallographic axes

     site n.     atom                  positions (cryst. coord.)
         1        Te     tau(   1) = (  0.2636000  0.0000000  0.3333333  )
         2        Te     tau(   2) = ( -0.0000000  0.2636000  0.6666667  )
         3        Te     tau(   3) = ( -0.2636000 -0.2636000  0.0000000  )

     number of k points=    34  Gaussian smearing, width (Ry)=  0.0100
                       cart. coord. in units 2pi/alat
        k(    1) = (   0.0000000   0.0000000   0.0000000), wk =   0.0046296
        k(    2) = (   0.0000000   0.0000000   0.1259224), wk =   0.0092593
        k(    3) = (   0.0000000   0.0000000   0.2518448), wk =   0.0092593
        k(    4) = (   0.0000000   0.0000000  -0.3777672), wk =   0.0046296
        k(    5) = (   0.0000000   0.1924501   0.0000000), wk =   0.0277778
        k(    6) = (   0.0000000   0.1924501   0.1259224), wk =   0.0277778
        k(    7) = (   0.0000000   0.1924501   0.2518448), wk =   0.0277778
        k(    8) = (   0.0000000   0.1924501  -0.3777672), wk =   0.0277778
        k(    9) = (   0.0000000   0.3849002   0.0000000), wk =   0.0277778
        k(   10) = (   0.0000000   0.3849002   0.1259224), wk =   0.0277778
        k(   11) = (   0.0000000   0.3849002   0.2518448), wk =   0.0277778
        k(   12) = (   0.0000000   0.3849002  -0.3777672), wk =   0.0277778
        k(   13) = (   0.0000000  -0.5773503   0.0000000), wk =   0.0138889
        k(   14) = (   0.0000000  -0.5773503   0.1259224), wk =   0.0277778
        k(   15) = (   0.0000000  -0.5773503   0.2518448), wk =   0.0277778
        k(   16) = (   0.0000000  -0.5773503  -0.3777672), wk =   0.0138889
        k(   17) = (   0.1666667   0.2886752   0.0000000), wk =   0.0277778
        k(   18) = (   0.1666667   0.2886752   0.1259224), wk =   0.0555556
        k(   19) = (   0.1666667   0.2886752   0.2518448), wk =   0.0555556
        k(   20) = (   0.1666667   0.2886752  -0.3777672), wk =   0.0277778
        k(   21) = (   0.1666667   0.4811253   0.0000000), wk =   0.0555556
        k(   22) = (   0.1666667   0.4811253   0.1259224), wk =   0.0555556
        k(   23) = (   0.1666667   0.4811253   0.2518448), wk =   0.0555556
        k(   24) = (   0.1666667   0.4811253  -0.3777672), wk =   0.0555556
        k(   25) = (   0.3333333   0.5773503   0.0000000), wk =   0.0092593
        k(   26) = (   0.3333333   0.5773503   0.1259224), wk =   0.0185185
        k(   27) = (   0.3333333   0.5773503   0.2518448), wk =   0.0185185
        k(   28) = (   0.3333333   0.5773503  -0.3777672), wk =   0.0092593
        k(   29) = (   0.0000000   0.1924501  -0.1259224), wk =   0.0277778
        k(   30) = (   0.0000000   0.1924501  -0.2518448), wk =   0.0277778
        k(   31) = (   0.0000000   0.3849002  -0.1259224), wk =   0.0277778
        k(   32) = (   0.0000000   0.3849002  -0.2518448), wk =   0.0277778
        k(   33) = (  -0.1666667   0.4811253  -0.1259224), wk =   0.0555556
        k(   34) = (  -0.1666667   0.4811253  -0.2518448), wk =   0.0555556

                       cryst. coord.
        k(    1) = (   0.0000000   0.0000000   0.0000000), wk =   0.0046296
        k(    2) = (   0.0000000   0.0000000   0.1666667), wk =   0.0092593
        k(    3) = (   0.0000000   0.0000000   0.3333333), wk =   0.0092593
        k(    4) = (   0.0000000   0.0000000  -0.5000000), wk =   0.0046296
        k(    5) = (   0.0000000   0.1666667   0.0000000), wk =   0.0277778
        k(    6) = (   0.0000000   0.1666667   0.1666667), wk =   0.0277778
        k(    7) = (   0.0000000   0.1666667   0.3333333), wk =   0.0277778
        k(    8) = (   0.0000000   0.1666667  -0.5000000), wk =   0.0277778
        k(    9) = (   0.0000000   0.3333333   0.0000000), wk =   0.0277778
        k(   10) = (   0.0000000   0.3333333   0.1666667), wk =   0.0277778
        k(   11) = (   0.0000000   0.3333333   0.3333333), wk =   0.0277778
        k(   12) = (   0.0000000   0.3333333  -0.5000000), wk =   0.0277778
        k(   13) = (   0.0000000  -0.5000000   0.0000000), wk =   0.0138889
        k(   14) = (   0.0000000  -0.5000000   0.1666667), wk =   0.0277778
        k(   15) = (   0.0000000  -0.5000000   0.3333333), wk =   0.0277778
        k(   16) = (   0.0000000  -0.5000000  -0.5000000), wk =   0.0138889
        k(   17) = (   0.1666667   0.1666667   0.0000000), wk =   0.0277778
        k(   18) = (   0.1666667   0.1666667   0.1666667), wk =   0.0555556
        k(   19) = (   0.1666667   0.1666667   0.3333333), wk =   0.0555556
        k(   20) = (   0.1666667   0.1666667  -0.5000000), wk =   0.0277778
        k(   21) = (   0.1666667   0.3333333   0.0000000), wk =   0.0555556
        k(   22) = (   0.1666667   0.3333333   0.1666667), wk =   0.0555556
        k(   23) = (   0.1666667   0.3333333   0.3333333), wk =   0.0555556
        k(   24) = (   0.1666667   0.3333333  -0.5000000), wk =   0.0555556
        k(   25) = (   0.3333333   0.3333333   0.0000000), wk =   0.0092593
        k(   26) = (   0.3333333   0.3333333   0.1666667), wk =   0.0185185
        k(   27) = (   0.3333333   0.3333333   0.3333333), wk =   0.0185185
        k(   28) = (   0.3333333   0.3333333  -0.5000000), wk =   0.0092593
        k(   29) = (   0.0000000   0.1666667  -0.1666667), wk =   0.0277778
        k(   30) = (   0.0000000   0.1666667  -0.3333333), wk =   0.0277778
        k(   31) = (   0.0000000   0.3333333  -0.1666667), wk =   0.0277778
        k(   32) = (   0.0000000   0.3333333  -0.3333333), wk =   0.0277778
        k(   33) = (  -0.1666667   0.5000000  -0.1666667), wk =   0.0555556
        k(   34) = (  -0.1666667   0.5000000  -0.3333333), wk =   0.0555556

     Dense  grid:    60199 G-vectors     FFT dimensions: (  48,  48,  72)

     Smooth grid:    32649 G-vectors     FFT dimensions: (  40,  40,  54)

     Dynamical RAM for                 wfc:       1.62 MB

     Dynamical RAM for     wfc (w. buffer):      56.76 MB

     Dynamical RAM for           str. fact:       0.46 MB

     Dynamical RAM for           local pot:       0.00 MB

     Dynamical RAM for          nlocal pot:       3.18 MB

     Dynamical RAM for                qrad:       3.64 MB

     Dynamical RAM for          rho,v,vnew:      13.11 MB

     Dynamical RAM for               rhoin:       4.37 MB

     Dynamical RAM for            rho*nmix:      29.39 MB

     Dynamical RAM for           G-vectors:       1.85 MB

     Dynamical RAM for          h,s,v(r/c):       0.12 MB

     Dynamical RAM for          <psi|beta>:       0.08 MB

     Dynamical RAM for                 psi:       3.24 MB

     Dynamical RAM for                hpsi:       3.24 MB

     Dynamical RAM for                spsi:       3.24 MB

     Dynamical RAM for      wfcinit/wfcrot:       2.45 MB

     Dynamical RAM for           addusdens:     281.54 MB

     Dynamical RAM for         addusstress:     288.43 MB

     Estimated static dynamical RAM per process >      89.35 MB

     Estimated max dynamical RAM per process >     407.18 MB

     Estimated total dynamical RAM >     814.35 MB

     Initial potential from superposition of free atoms

     starting charge      17.9993, renormalised to      18.0000
     Starting wfcs are   24 randomized atomic wfcs +    2 random wfcs

     total cpu time spent up to now is        2.5 secs

     per-process dynamical memory:   106.0 Mb

     Self-consistent Calculation

     iteration #  1     ecut=    50.00 Ry     beta= 0.40
     Davidson diagonalization with overlap

---- Real-time Memory Report at c_bands before calling an iterative solver
           352 MiB given to the printing process from OS
           105 MiB allocation reported by mallinfo(arena+hblkhd)
          2950 MiB available memory on the node where the printing process lives
------------------
     c_bands:  2 eigenvalues not converged
     c_bands:  2 eigenvalues not converged
     c_bands:  1 eigenvalues not converged
     c_bands:  2 eigenvalues not converged
     c_bands:  2 eigenvalues not converged
     c_bands:  1 eigenvalues not converged
     c_bands:  2 eigenvalues not converged
     c_bands:  2 eigenvalues not converged
     c_bands:  2 eigenvalues not converged
     c_bands:  2 eigenvalues not converged
     c_bands:  1 eigenvalues not converged
     c_bands:  2 eigenvalues not converged
     c_bands:  2 eigenvalues not converged
     c_bands:  2 eigenvalues not converged
     c_bands:  2 eigenvalues not converged
     ethr =  1.00E-05,  avg # of iterations = 18.4

     total cpu time spent up to now is       18.8 secs

     total energy              =     -85.64283664 Ry
     estimated scf accuracy    <       0.01526127 Ry

     iteration #  2     ecut=    50.00 Ry     beta= 0.40
     Davidson diagonalization with overlap

---- Real-time Memory Report at c_bands before calling an iterative solver
           433 MiB given to the printing process from OS
           125 MiB allocation reported by mallinfo(arena+hblkhd)
          2898 MiB available memory on the node where the printing process lives
------------------
     ethr =  8.48E-05,  avg # of iterations =  1.0

     total cpu time spent up to now is       23.8 secs

     total energy              =     -85.64263680 Ry
     estimated scf accuracy    <       0.00449883 Ry

     iteration #  3     ecut=    50.00 Ry     beta= 0.40
     Davidson diagonalization with overlap

---- Real-time Memory Report at c_bands before calling an iterative solver
           435 MiB given to the printing process from OS
           127 MiB allocation reported by mallinfo(arena+hblkhd)
          2898 MiB available memory on the node where the printing process lives
------------------
     ethr =  2.50E-05,  avg # of iterations =  1.0

     total cpu time spent up to now is       28.8 secs

     total energy              =     -85.64287502 Ry
     estimated scf accuracy    <       0.00018472 Ry

     iteration #  4     ecut=    50.00 Ry     beta= 0.40
     Davidson diagonalization with overlap

---- Real-time Memory Report at c_bands before calling an iterative solver
           437 MiB given to the printing process from OS
           129 MiB allocation reported by mallinfo(arena+hblkhd)
          2888 MiB available memory on the node where the printing process lives
------------------
     ethr =  1.03E-06,  avg # of iterations =  5.4

     total cpu time spent up to now is       35.6 secs

     total energy              =     -85.64293996 Ry
     estimated scf accuracy    <       0.00000651 Ry

     iteration #  5     ecut=    50.00 Ry     beta= 0.40
     Davidson diagonalization with overlap

---- Real-time Memory Report at c_bands before calling an iterative solver
           439 MiB given to the printing process from OS
           131 MiB allocation reported by mallinfo(arena+hblkhd)
          2885 MiB available memory on the node where the printing process lives
------------------
     ethr =  3.62E-08,  avg # of iterations =  4.0

     total cpu time spent up to now is       42.7 secs

     total energy              =     -85.64294380 Ry
     estimated scf accuracy    <       0.00000199 Ry

     iteration #  6     ecut=    50.00 Ry     beta= 0.40
     Davidson diagonalization with overlap

---- Real-time Memory Report at c_bands before calling an iterative solver
           441 MiB given to the printing process from OS
           133 MiB allocation reported by mallinfo(arena+hblkhd)
          2884 MiB available memory on the node where the printing process lives
------------------
     ethr =  1.11E-08,  avg # of iterations =  2.1

     total cpu time spent up to now is       48.6 secs

     total energy              =     -85.64294407 Ry
     estimated scf accuracy    <       0.00000012 Ry

     iteration #  7     ecut=    50.00 Ry     beta= 0.40
     Davidson diagonalization with overlap

---- Real-time Memory Report at c_bands before calling an iterative solver
           443 MiB given to the printing process from OS
           135 MiB allocation reported by mallinfo(arena+hblkhd)
          2878 MiB available memory on the node where the printing process lives
------------------
     ethr =  6.68E-10,  avg # of iterations =  2.8

     total cpu time spent up to now is       54.6 secs

     total energy              =     -85.64294410 Ry
     estimated scf accuracy    <       0.00000002 Ry

     iteration #  8     ecut=    50.00 Ry     beta= 0.40
     Davidson diagonalization with overlap

---- Real-time Memory Report at c_bands before calling an iterative solver
           445 MiB given to the printing process from OS
           137 MiB allocation reported by mallinfo(arena+hblkhd)
          2875 MiB available memory on the node where the printing process lives
------------------
     ethr =  1.01E-10,  avg # of iterations =  3.5

     total cpu time spent up to now is       60.8 secs

     End of self-consistent calculation

          k = 0.0000 0.0000 0.0000 (  4069 PWs)   bands (ev):

    -7.6412  -7.6412  -4.2709  -4.2709  -4.2695  -4.2695   2.7672   2.7672
     2.9824   2.9824   3.4159   3.4159   4.3686   4.3686   4.4105   4.4105
     5.2846   5.2846   6.7290   6.7290   7.3497   7.3497   7.8583   7.8583
    11.0275  11.0289

     occupation numbers 
     1.0000   1.0000   1.0000   1.0000   1.0000   1.0000   1.0000   1.0000
     1.0000   1.0000   1.0000   1.0000   1.0000   1.0000   1.0000   1.0000
     1.0000   1.0000   0.0000   0.0000   0.0000   0.0000   0.0000   0.0000
     0.0000   0.0000

          k = 0.0000 0.0000 0.1259 (  4129 PWs)   bands (ev):

    -7.5396  -7.5384  -5.2204  -5.2173  -3.2917  -3.2902   2.5640   2.5729
     2.9400   3.1293   3.2179   3.6667   4.3312   4.4235   4.5046   4.5635
     5.1998   5.3056   6.6008   6.6298   7.1125   7.1969   7.5732   7.5897
    10.7047  10.7429

     occupation numbers 
     1.0000   1.0000   1.0000   1.0000   1.0000   1.0000   1.0000   1.0000
     1.0000   1.0000   1.0000   1.0000   1.0000   1.0000   1.0000   1.0000
     1.0000   1.0000   0.0001   0.0000   0.0000   0.0000   0.0000   0.0000
     0.0000   0.0000

          k = 0.0000 0.0000 0.2518 (  4105 PWs)   bands (ev):

    -7.2357  -7.2334  -6.0568  -6.0533  -2.4533  -2.4496   2.1017   2.1438
     3.0970   3.1935   3.2690   3.6850   4.4533   4.5865   4.6075   4.8401
     5.0395   5.2551   6.4637   6.4845   6.7385   6.9108   7.0292   7.1064
    10.2623  10.2805

     occupation numbers 
     1.0000   1.0000   1.0000   1.0000   1.0000   1.0000   1.0000   1.0000
     1.0000   1.0000   1.0000   1.0000   1.0000   1.0000   1.0000   1.0000
     1.0000   1.0000   0.0083   0.0045   0.0000   0.0000   0.0000   0.0000
     0.0000   0.0000

          k = 0.0000 0.0000-0.3778 (  4130 PWs)   bands (ev):

    -6.7368  -6.7368  -6.7336  -6.7336  -2.0862  -2.0862   1.8785   1.8785
     3.1964   3.1964   3.4834   3.4834   4.5962   4.5962   4.8203   4.8203
     5.0995   5.0995   6.5053   6.5053   6.5997   6.5997   6.8295   6.8295
    10.0810  10.0810

     occupation numbers 
     1.0000   1.0000   1.0000   1.0000   1.0000   1.0000   1.0000   1.0000
     1.0000   1.0000   1.0000   1.0000   1.0000   1.0000   1.0000   1.0000
     1.0000   1.0000   0.0023   0.0023   0.0001   0.0001   0.0000   0.0000
     0.0000   0.0000

          k = 0.0000 0.1925 0.0000 (  4119 PWs)   bands (ev):

    -7.4606  -7.4602  -4.3391  -4.3332  -4.2195  -4.2152   1.7756   1.8728
     2.3516   2.5019   2.8363   3.0743   4.5982   4.7715   4.9817   5.0702
     5.2558   5.3702   6.8257   6.9109   7.0648   7.1539   7.6122   7.7148
    10.4503  10.4915

     occupation numbers 
     1.0000   1.0000   1.0000   1.0000   1.0000   1.0000   1.0000   1.0000
     1.0000   1.0000   1.0000   1.0000   1.0000   1.0000   1.0000   1.0000
     1.0000   1.0000   0.0000   0.0000   0.0000   0.0000   0.0000   0.0000
     0.0000   0.0000

          k = 0.0000 0.1925 0.1259 (  4114 PWs)   bands (ev):

    -7.3603  -7.3588  -5.1616  -5.1583  -3.3950  -3.3922   1.8710   1.9467
     2.0510   2.1840   2.9331   3.1233   4.7023   4.8356   5.0127   5.2108
     5.4127   5.5063   6.6767   6.7056   6.8464   6.9853   7.4847   7.5442
    10.0387  10.0478

     occupation numbers 
     1.0000   1.0000   1.0000   1.0000   1.0000   1.0000   1.0000   1.0000
     1.0000   1.0000   1.0000   1.0000   1.0000   1.0000   1.0000   1.0000
     1.0000   1.0000   0.0000   0.0000   0.0000   0.0000   0.0000   0.0000
     0.0000   0.0000

          k = 0.0000 0.1925 0.2518 (  4108 PWs)   bands (ev):

    -7.0639  -7.0611  -5.9426  -5.9385  -2.7254  -2.7208   1.7402   1.8365
     2.2136   2.3948   3.0377   3.2200   4.5051   4.5747   4.7212   4.8191
     4.9907   5.0874   6.7146   6.8268   7.0377   7.1940   7.7627   7.7758
    10.0668  10.0938

     occupation numbers 
     1.0000   1.0000   1.0000   1.0000   1.0000   1.0000   1.0000   1.0000
     1.0000   1.0000   1.0000   1.0000   1.0000   1.0000   1.0000   1.0000
     1.0000   1.0000   0.0000   0.0000   0.0000   0.0000   0.0000   0.0000
     0.0000   0.0000

          k = 0.0000 0.1925-0.3778 (  4080 PWs)   bands (ev):

    -6.6030  -6.6012  -6.5642  -6.5627  -2.4807  -2.4799   1.7102   1.7940
     2.6758   2.9240   2.9943   3.1641   3.9785   4.2072   4.3051   4.4570
     4.6641   4.8613   6.8463   6.9942   7.4076   7.5493   7.9611   7.9660
    10.4972  10.5194

     occupation numbers 
     1.0000   1.0000   1.0000   1.0000   1.0000   1.0000   1.0000   1.0000
     1.0000   1.0000   1.0000   1.0000   1.0000   1.0000   1.0000   1.0000
     1.0000   1.0000   0.0000   0.0000   0.0000   0.0000   0.0000   0.0000
     0.0000   0.0000

          k = 0.0000 0.3849 0.0000 (  4080 PWs)   bands (ev):

    -6.9923  -6.9917  -4.6552  -4.6496  -4.1006  -4.0966   1.0791   1.1356
     1.6647   1.8302   2.3553   2.5729   3.5730   3.6484   4.8894   5.0398
     5.1256   5.2727   6.9431   7.0472   7.1700   7.2093   8.8742   8.8904
     9.4297   9.4597

     occupation numbers 
     1.0000   1.0000   1.0000   1.0000   1.0000   1.0000   1.0000   1.0000
     1.0000   1.0000   1.0000   1.0000   1.0000   1.0000   1.0000   1.0000
     1.0000   1.0000   0.0000   0.0000   0.0000   0.0000   0.0000   0.0000
     0.0000   0.0000

          k = 0.0000 0.3849 0.1259 (  4082 PWs)   bands (ev):

    -6.8948  -6.8922  -5.1360  -5.1314  -3.6623  -3.6557   0.9212   0.9497
     1.4210   1.5225   2.4730   2.6132   4.2908   4.5492   4.7625   5.0473
     5.0638   5.2673   6.8740   6.9287   7.3558   7.4656   7.9913   8.0177
     9.3601   9.4229

     occupation numbers 
     1.0000   1.0000   1.0000   1.0000   1.0000   1.0000   1.0000   1.0000
     1.0000   1.0000   1.0000   1.0000   1.0000   1.0000   1.0000   1.0000
     1.0000   1.0000   0.0000   0.0000   0.0000   0.0000   0.0000   0.0000
     0.0000   0.0000

          k = 0.0000 0.3849 0.2518 (  4088 PWs)   bands (ev):

    -6.6230  -6.6180  -5.7124  -5.7059  -3.3560  -3.3495   0.7532   0.7977
     1.6624   1.7828   2.6225   2.7378   4.0118   4.1739   4.3946   4.4978
     5.8527   5.9054   6.7493   6.8223   7.3843   7.5215   7.8660   8.2157
     9.8490   9.9887

     occupation numbers 
     1.0000   1.0000   1.0000   1.0000   1.0000   1.0000   1.0000   1.0000
     1.0000   1.0000   1.0000   1.0000   1.0000   1.0000   1.0000   1.0000
     1.0000   0.9997   0.0000   0.0000   0.0000   0.0000   0.0000   0.0000
     0.0000   0.0000

          k = 0.0000 0.3849-0.3778 (  4090 PWs)   bands (ev):

    -6.3019  -6.3000  -6.1161  -6.1140  -3.3245  -3.3229   0.8445   0.8862
     2.1701   2.2955   2.5252   2.6390   3.7559   3.8202   4.0544   4.1316
     5.0357   5.1296   7.3078   7.5138   7.9816   8.0907   8.3550   8.5764
    10.5284  10.6811

     occupation numbers 
     1.0000   1.0000   1.0000   1.0000   1.0000   1.0000   1.0000   1.0000
     1.0000   1.0000   1.0000   1.0000   1.0000   1.0000   1.0000   1.0000
     1.0000   1.0000   0.0000   0.0000   0.0000   0.0000   0.0000   0.0000
     0.0000   0.0000

          k = 0.0000-0.5774 0.0000 (  4082 PWs)   bands (ev):

    -6.6407  -6.6407  -4.9736  -4.9736  -4.0324  -4.0324   1.0598   1.0598
     1.5575   1.5575   2.3931   2.3931   2.6041   2.6041   4.8786   4.8786
     5.1694   5.1694   6.9951   6.9951   7.1091   7.1091   9.0523   9.0523
     9.8434   9.8434

     occupation numbers 
     1.0000   1.0000   1.0000   1.0000   1.0000   1.0000   1.0000   1.0000
     1.0000   1.0000   1.0000   1.0000   1.0000   1.0000   1.0000   1.0000
     1.0000   1.0000   0.0000   0.0000   0.0000   0.0000   0.0000   0.0000
     0.0000   0.0000

          k = 0.0000-0.5774 0.1259 (  4078 PWs)   bands (ev):

    -6.5651  -6.5612  -5.1366  -5.1321  -3.9821  -3.9737   1.0138   1.0540
     1.2251   1.3379   2.3118   2.4711   3.2487   3.4297   4.5148   4.6865
     4.8346   4.9175   6.9827   7.0292   7.5680   7.7990   9.2811   9.3056
     9.4217   9.5330

     occupation numbers 
     1.0000   1.0000   1.0000   1.0000   1.0000   1.0000   1.0000   1.0000
     1.0000   1.0000   1.0000   1.0000   1.0000   1.0000   1.0000   1.0000
     1.0000   1.0000   0.0000   0.0000   0.0000   0.0000   0.0000   0.0000
     0.0000   0.0000

          k = 0.0000-0.5774 0.2518 (  4068 PWs)   bands (ev):

    -6.3491  -6.3424  -5.4977  -5.4897  -3.8886  -3.8813   0.4914   0.5222
     1.6696   1.7797   2.4273   2.5417   3.6690   3.9450   4.1249   4.3205
     4.8409   5.0307   7.3450   7.4486   7.9787   8.0489   8.3567   8.6914
    10.1556  10.3786

     occupation numbers 
     1.0000   1.0000   1.0000   1.0000   1.0000   1.0000   1.0000   1.0000
     1.0000   1.0000   1.0000   1.0000   1.0000   1.0000   1.0000   1.0000
     1.0000   1.0000   0.0000   0.0000   0.0000   0.0000   0.0000   0.0000
     0.0000   0.0000

          k = 0.0000-0.5774-0.3778 (  4068 PWs)   bands (ev):

    -6.1273  -6.1273  -5.7753  -5.7753  -3.8423  -3.8423   0.3031   0.3031
     2.1954   2.1954   2.3246   2.3246   3.6159   3.6159   3.9845   3.9845
     5.8788   5.8788   6.8487   6.8487   7.8942   7.8942   8.7360   8.7360
    10.6354  10.6354

     occupation numbers 
     1.0000   1.0000   1.0000   1.0000   1.0000   1.0000   1.0000   1.0000
     1.0000   1.0000   1.0000   1.0000   1.0000   1.0000   1.0000   1.0000
     0.9999   0.9999   0.0000   0.0000   0.0000   0.0000   0.0000   0.0000
     0.0000   0.0000

          k = 0.1667 0.2887 0.0000 (  4085 PWs)   bands (ev):

    -7.1317  -7.1311  -4.4766  -4.4660  -4.2086  -4.1998   1.2686   1.3848
     1.5363   1.6465   2.9041   3.0685   4.0838   4.2411   4.3788   4.4482
     4.8495   4.8975   7.5838   7.6226   7.6731   7.7090   8.0238   8.0395
    10.3066  10.3127

     occupation numbers 
     1.0000   1.0000   1.0000   1.0000   1.0000   1.0000   1.0000   1.0000
     1.0000   1.0000   1.0000   1.0000   1.0000   1.0000   1.0000   1.0000
     1.0000   1.0000   0.0000   0.0000   0.0000   0.0000   0.0000   0.0000
     0.0000   0.0000

          k = 0.1667 0.2887 0.1259 (  4081 PWs)   bands (ev):

    -7.0391  -7.0369  -5.0573  -5.0532  -3.6946  -3.6891   1.2745   1.3382
     1.7080   1.7678   2.8091   2.9467   3.6504   3.7438   4.4203   4.5380
     5.4837   5.5493   6.9581   7.0266   7.7090   7.7540   8.3320   8.3655
    10.2835  10.3147

     occupation numbers 
     1.0000   1.0000   1.0000   1.0000   1.0000   1.0000   1.0000   1.0000
     1.0000   1.0000   1.0000   1.0000   1.0000   1.0000   1.0000   1.0000
     1.0000   1.0000   0.0000   0.0000   0.0000   0.0000   0.0000   0.0000
     0.0000   0.0000

          k = 0.1667 0.2887 0.2518 (  4099 PWs)   bands (ev):

    -6.7648  -6.7609  -5.7318  -5.7265  -3.2486  -3.2425   1.2857   1.3790
     1.7991   1.9349   2.6459   2.7608   3.3473   3.5288   4.8779   5.0032
     5.2385   5.3537   6.8900   6.9423   7.7162   7.7290   8.5182   8.5736
    10.4735  10.4945

     occupation numbers 
     1.0000   1.0000   1.0000   1.0000   1.0000   1.0000   1.0000   1.0000
     1.0000   1.0000   1.0000   1.0000   1.0000   1.0000   1.0000   1.0000
     1.0000   1.0000   0.0000   0.0000   0.0000   0.0000   0.0000   0.0000
     0.0000   0.0000

          k = 0.1667 0.2887-0.3778 (  4096 PWs)   bands (ev):

    -6.3663  -6.3632  -6.2689  -6.2658  -3.0800  -3.0784   1.2646   1.3624
     2.0904   2.1015   2.2164   2.3207   3.9290   4.0903   4.4985   4.5325
     5.1871   5.2723   6.7945   6.8738   8.1844   8.2007   8.3941   8.4169
    10.6741  10.7155

     occupation numbers 
     1.0000   1.0000   1.0000   1.0000   1.0000   1.0000   1.0000   1.0000
     1.0000   1.0000   1.0000   1.0000   1.0000   1.0000   1.0000   1.0000
     1.0000   1.0000   0.0000   0.0000   0.0000   0.0000   0.0000   0.0000
     0.0000   0.0000

          k = 0.1667 0.4811 0.0000 (  4086 PWs)   bands (ev):

    -6.6670  -6.6662  -4.7889  -4.7826  -4.2275  -4.2218   1.1292   1.2022
     1.4017   1.5112   2.4821   2.6797   2.9898   3.1110   4.0245   4.1131
     4.2687   4.3096   7.8192   7.8563   8.1817   8.1954   9.3274   9.3380
     9.9173   9.9359

     occupation numbers 
     1.0000   1.0000   1.0000   1.0000   1.0000   1.0000   1.0000   1.0000
     1.0000   1.0000   1.0000   1.0000   1.0000   1.0000   1.0000   1.0000
     1.0000   1.0000   0.0000   0.0000   0.0000   0.0000   0.0000   0.0000
     0.0000   0.0000

          k = 0.1667 0.4811 0.1259 (  4088 PWs)   bands (ev):

    -6.5822  -6.5783  -5.0923  -5.0869  -3.9980  -3.9890   0.8553   0.8886
     1.3658   1.4694   2.3989   2.5307   3.2176   3.3848   4.1027   4.2358
     4.9235   5.0454   7.3767   7.4394   8.4117   8.4435   8.5709   8.6382
    10.0680  10.1243

     occupation numbers 
     1.0000   1.0000   1.0000   1.0000   1.0000   1.0000   1.0000   1.0000
     1.0000   1.0000   1.0000   1.0000   1.0000   1.0000   1.0000   1.0000
     1.0000   1.0000   0.0000   0.0000   0.0000   0.0000   0.0000   0.0000
     0.0000   0.0000

          k = 0.1667 0.4811 0.2518 (  4078 PWs)   bands (ev):

    -6.3450  -6.3380  -5.5391  -5.5307  -3.7981  -3.7901   0.5863   0.6295
     1.3381   1.4140   2.1333   2.2064   3.4708   3.5974   5.0391   5.2449
     5.6176   5.8703   6.7600   6.8195   7.5181   7.5885   8.5877   8.7035
    10.3907  10.4712

     occupation numbers 
     1.0000   1.0000   1.0000   1.0000   1.0000   1.0000   1.0000   1.0000
     1.0000   1.0000   1.0000   1.0000   1.0000   1.0000   1.0000   1.0000
     1.0000   0.9999   0.0000   0.0000   0.0000   0.0000   0.0000   0.0000
     0.0000   0.0000

          k = 0.1667 0.4811-0.3778 (  4078 PWs)   bands (ev):

    -6.0789  -6.0766  -5.8639  -5.8608  -3.7531  -3.7514   0.5725   0.6002
     1.5173   1.5459   1.6612   1.7433   4.3211   4.4236   4.8135   4.8524
     5.6410   5.7126   6.9632   7.0676   7.6399   7.7049   8.2658   8.3153
    10.8686  10.9050

     occupation numbers 
     1.0000   1.0000   1.0000   1.0000   1.0000   1.0000   1.0000   1.0000
     1.0000   1.0000   1.0000   1.0000   1.0000   1.0000   1.0000   1.0000
     1.0000   1.0000   0.0000   0.0000   0.0000   0.0000   0.0000   0.0000
     0.0000   0.0000

          k = 0.3333 0.5774 0.0000 (  4104 PWs)   bands (ev):

    -6.4718  -6.4718  -4.6102  -4.6071  -4.6071  -4.5952   1.2720   1.4600
     1.4600   1.4757   2.8159   2.8159   2.9102   3.1135   3.1135   3.1422
     3.5003   3.5003   8.8242   8.8659   9.0331   9.0331   9.2828   9.2828
    10.8966  10.8967

     occupation numbers 
     1.0000   1.0000   1.0000   1.0000   1.0000   1.0000   1.0000   1.0000
     1.0000   1.0000   1.0000   1.0000   1.0000   1.0000   1.0000   1.0000
     1.0000   1.0000   0.0000   0.0000   0.0000   0.0000   0.0000   0.0000
     0.0000   0.0000

          k = 0.3333 0.5774 0.1259 (  4095 PWs)   bands (ev):

    -6.3983  -6.3935  -5.0048  -5.0010  -4.2741  -4.2637   0.9666   0.9815
     1.3574   1.5246   2.1726   2.2813   2.9054   3.0895   3.9193   3.9624
     4.3035   4.4977   8.3059   8.4627   8.7558   8.8784   8.8901   8.9188
    11.0946  11.1437

     occupation numbers 
     1.0000   1.0000   1.0000   1.0000   1.0000   1.0000   1.0000   1.0000
     1.0000   1.0000   1.0000   1.0000   1.0000   1.0000   1.0000   1.0000
     1.0000   1.0000   0.0000   0.0000   0.0000   0.0000   0.0000   0.0000
     0.0000   0.0000

          k = 0.3333 0.5774 0.2518 (  4089 PWs)   bands (ev):

    -6.1810  -6.1723  -5.4355  -5.4261  -4.0338  -4.0247   0.7763   0.8315
     0.9483   1.0090   1.4305   1.5422   3.9633   4.0949   5.0160   5.1712
     5.3632   5.6553   7.1903   7.3037   7.9872   8.0791   8.1914   8.2194
    11.7384  11.7478

     occupation numbers 
     1.0000   1.0000   1.0000   1.0000   1.0000   1.0000   1.0000   1.0000
     1.0000   1.0000   1.0000   1.0000   1.0000   1.0000   1.0000   1.0000
     1.0000   1.0000   0.0000   0.0000   0.0000   0.0000   0.0000   0.0000
     0.0000   0.0000

          k = 0.3333 0.5774-0.3778 (  4092 PWs)   bands (ev):

    -5.8457  -5.8457  -5.8386  -5.8313  -3.9388  -3.9388   0.7684   0.7684
     0.9174   0.9708   1.0443   1.0443   4.9002   4.9002   5.8764   5.8765
     6.1272   6.2631   6.2631   6.2665   7.3983   7.4629   7.6305   7.6305
    11.9407  11.9407

     occupation numbers 
     1.0000   1.0000   1.0000   1.0000   1.0000   1.0000   1.0000   1.0000
     1.0000   1.0000   1.0000   1.0000   1.0000   1.0000   0.9999   0.9999
     0.8649   0.3784   0.3784   0.3651   0.0000   0.0000   0.0000   0.0000
     0.0000   0.0000

          k = 0.0000 0.1925-0.1259 (  4114 PWs)   bands (ev):

    -7.3630  -7.3615  -5.1336  -5.1303  -3.4536  -3.4507   1.8485   1.9381
     2.5665   2.7569   2.8480   3.2048   4.3027   4.3557   4.4469   4.6297
     4.8717   5.0624   7.0726   7.1757   7.4622   7.5878   7.8573   7.9593
    10.7377  10.7791

     occupation numbers 
     1.0000   1.0000   1.0000   1.0000   1.0000   1.0000   1.0000   1.0000
     1.0000   1.0000   1.0000   1.0000   1.0000   1.0000   1.0000   1.0000
     1.0000   1.0000   0.0000   0.0000   0.0000   0.0000   0.0000   0.0000
     0.0000   0.0000

          k = 0.0000 0.1925-0.2518 (  4108 PWs)   bands (ev):

    -7.0697  -7.0669  -5.9252  -5.9212  -2.7778  -2.7732   1.8694   1.9395
     2.6849   2.8478   3.1079   3.3523   3.7877   4.0120   4.2154   4.3059
     4.6938   4.8448   7.0930   7.1361   7.7171   7.8063   7.8760   7.9388
    10.6799  10.6982

     occupation numbers 
     1.0000   1.0000   1.0000   1.0000   1.0000   1.0000   1.0000   1.0000
     1.0000   1.0000   1.0000   1.0000   1.0000   1.0000   1.0000   1.0000
     1.0000   1.0000   0.0000   0.0000   0.0000   0.0000   0.0000   0.0000
     0.0000   0.0000

          k = 0.0000 0.3849-0.1259 (  4082 PWs)   bands (ev):

    -6.9122  -6.9097  -4.9735  -4.9695  -3.9210  -3.9146   1.3574   1.4725
     1.8492   1.9710   2.5848   2.8178   2.8466   3.0752   4.4167   4.6736
     4.8567   5.0250   7.0656   7.1721   7.7551   8.0018   9.2779   9.2914
    10.0277  10.1441

     occupation numbers 
     1.0000   1.0000   1.0000   1.0000   1.0000   1.0000   1.0000   1.0000
     1.0000   1.0000   1.0000   1.0000   1.0000   1.0000   1.0000   1.0000
     1.0000   1.0000   0.0000   0.0000   0.0000   0.0000   0.0000   0.0000
     0.0000   0.0000

          k = 0.0000 0.3849-0.2518 (  4088 PWs)   bands (ev):

    -6.6609  -6.6567  -5.6002  -5.5947  -3.5476  -3.5413   1.2284   1.3032
     1.9950   2.1547   2.5941   2.7370   3.3549   3.7147   3.9658   4.1291
     4.4683   4.6919   7.4850   7.5459   8.3055   8.4739   8.9687   8.9829
    10.6620  10.7758

     occupation numbers 
     1.0000   1.0000   1.0000   1.0000   1.0000   1.0000   1.0000   1.0000
     1.0000   1.0000   1.0000   1.0000   1.0000   1.0000   1.0000   1.0000
     1.0000   1.0000   0.0000   0.0000   0.0000   0.0000   0.0000   0.0000
     0.0000   0.0000

          k =-0.1667 0.4811-0.1259 (  4088 PWs)   bands (ev):

    -6.5931  -6.5894  -5.0058  -5.0008  -4.1128  -4.1035   1.0481   1.0997
     1.4558   1.5308   2.4378   2.6028   2.8585   3.2355   3.6932   3.8875
     5.1561   5.2197   7.2353   7.2934   8.2936   8.3486   9.3826   9.4069
    10.1748  10.2321

     occupation numbers 
     1.0000   1.0000   1.0000   1.0000   1.0000   1.0000   1.0000   1.0000
     1.0000   1.0000   1.0000   1.0000   1.0000   1.0000   1.0000   1.0000
     1.0000   1.0000   0.0000   0.0000   0.0000   0.0000   0.0000   0.0000
     0.0000   0.0000

          k =-0.1667 0.4811-0.2518 (  4078 PWs)   bands (ev):

    -6.3684  -6.3621  -5.4720  -5.4645  -3.8816  -3.8737   0.8389   0.9130
     1.2349   1.3018   2.0897   2.1642   3.5883   3.7971   4.4979   4.6381
     5.4129   5.5441   7.0233   7.0501   8.1665   8.2382   8.6747   8.7162
    10.6489  10.6959

     occupation numbers 
     1.0000   1.0000   1.0000   1.0000   1.0000   1.0000   1.0000   1.0000
     1.0000   1.0000   1.0000   1.0000   1.0000   1.0000   1.0000   1.0000
     1.0000   1.0000   0.0000   0.0000   0.0000   0.0000   0.0000   0.0000
     0.0000   0.0000

     the Fermi energy is     6.2333 ev

!    total energy              =     -85.64294410 Ry
     estimated scf accuracy    <          4.3E-09 Ry
     smearing contrib. (-TS)   =      -0.00009204 Ry
     internal energy E=F+TS    =     -85.64285206 Ry

     The total energy is F=E-TS. E is the sum of the following terms:
     one-electron contribution =      10.26050016 Ry
     hartree contribution      =       3.36336027 Ry
     xc contribution           =     -49.71308235 Ry
     ewald contribution        =     -49.55363015 Ry

     convergence has been achieved in   8 iterations


     Computing stress (Cartesian axis) and pressure

          total   stress  (Ry/bohr**3)                   (kbar)     P=       27.55
   0.00015878   0.00000000   0.00000000           23.36        0.00        0.00
   0.00000000   0.00015878   0.00000000            0.00       23.36        0.00
   0.00000000   0.00000000   0.00024419            0.00        0.00       35.92

     kinetic stress (kbar)   2352.99      0.00      0.00
                                0.00   2352.99     -0.00
                                0.00     -0.00   2228.87

     local   stress (kbar)    160.06     -0.00     -0.00
                               -0.00    160.06      0.00
                               -0.00      0.00   -567.30

     nonloc. stress (kbar)   2382.59      0.00      0.00
                                0.00   2382.59      0.00
                                0.00      0.00   2373.12

     hartree stress (kbar)    182.15      0.00     -0.00
                                0.00    182.15     -0.00
                               -0.00     -0.00    358.05

     exc-cor stress (kbar)   7030.31      0.00      0.00
                                0.00   7030.31     -0.00
                                0.00     -0.00   7032.64

     corecor stress (kbar)  -8308.16     -0.00     -0.00
                               -0.00  -8308.16      0.00
                               -0.00      0.00  -8300.09

     ewald   stress (kbar)  -3776.57      0.00      0.00
                                0.00  -3776.57     -0.00
                                0.00     -0.00  -3089.37

     hubbard stress (kbar)      0.00      0.00      0.00
                                0.00      0.00      0.00
                                0.00      0.00      0.00

     DFT-D   stress (kbar)      0.00      0.00      0.00
                                0.00      0.00      0.00
                                0.00      0.00      0.00

     XDM     stress (kbar)      0.00      0.00      0.00
                                0.00      0.00      0.00
                                0.00      0.00      0.00

     dft-nl  stress (kbar)      0.00      0.00      0.00
                                0.00      0.00      0.00
                                0.00      0.00      0.00

     TS-vdW  stress (kbar)      0.00      0.00      0.00
                                0.00      0.00      0.00
                                0.00      0.00      0.00

     MDB     stress (kbar)      0.00      0.00      0.00
                                0.00      0.00      0.00
                                0.00      0.00      0.00

     3D-RISM stress (kbar)      0.00      0.00      0.00
                                0.00      0.00      0.00
                                0.00      0.00      0.00


     Writing all to output data dir /home/user/workspace/qe_runs/strain_clamp_m0050/out/teclamp_m0050.save/ :
     XML data file, charge density, pseudopotentials, collected wavefunctions

     init_run     :      2.16s CPU      2.34s WALL (       1 calls)
     electrons    :     55.15s CPU     58.36s WALL (       1 calls)
     stress       :      4.33s CPU      4.67s WALL (       1 calls)

     Called by init_run:
     wfcinit      :      1.24s CPU      1.31s WALL (       1 calls)
     wfcinit:atom :      0.01s CPU      0.01s WALL (      34 calls)
     wfcinit:wfcr :      1.18s CPU      1.24s WALL (      34 calls)
     potinit      :      0.19s CPU      0.21s WALL (       1 calls)
     hinit0       :      0.46s CPU      0.46s WALL (       1 calls)

     Called by electrons:
     c_bands      :     44.76s CPU     46.03s WALL (       8 calls)
     sum_band     :      8.00s CPU      9.19s WALL (       8 calls)
     v_of_rho     :      0.23s CPU      0.25s WALL (       9 calls)
     v_h          :      0.01s CPU      0.01s WALL (       9 calls)
     v_xc         :      0.25s CPU      0.26s WALL (      10 calls)
     newd         :      2.27s CPU      3.09s WALL (       9 calls)
     mix_rho      :      0.11s CPU      0.11s WALL (       8 calls)

     Called by c_bands:
     init_us_2    :      0.57s CPU      0.59s WALL (     612 calls)
     cegterg      :     37.88s CPU     39.08s WALL (     272 calls)

     Called by sum_band:
     sum_band:wei :      0.01s CPU      0.01s WALL (       8 calls)
     sum_band:loo :      5.88s CPU      6.05s WALL (       8 calls)
     sum_band:buf :      0.07s CPU      0.07s WALL (     272 calls)
     sum_band:ini :      0.25s CPU      0.26s WALL (     272 calls)
     sum_band:cal :      0.54s CPU      0.56s WALL (     272 calls)
     sum_band:bec :      0.63s CPU      0.64s WALL (     272 calls)
     addusdens    :      2.03s CPU      3.04s WALL (       8 calls)
                                        0.00s GPU  (       8 calls)
     addusd:skk   :      0.00s CPU      0.00s WALL (       8 calls)
                                        0.00s GPU  (       8 calls)

     Called by *egterg:
     cdiaghg      :      1.14s CPU      1.16s WALL (    1570 calls)
     cegterg:over :      1.72s CPU      1.75s WALL (    1298 calls)
     cegterg:upda :      1.01s CPU      1.03s WALL (    1298 calls)
     cegterg:last :      1.90s CPU      1.93s WALL (     759 calls)
     h_psi        :     30.13s CPU     31.24s WALL (    1604 calls)
     s_psi        :      1.80s CPU      1.83s WALL (    1604 calls)
     g_psi        :      0.35s CPU      0.36s WALL (    1298 calls)

     Called by h_psi:
     h_psi:calbec :      2.12s CPU      2.18s WALL (    1604 calls)
     vloc_psi     :     25.98s CPU     27.00s WALL (    1604 calls)
                                        0.00s GPU  (    1604 calls)
     add_vuspsi   :      1.81s CPU      1.84s WALL (    1604 calls)

     General routines
     calbec       :      3.55s CPU      3.63s WALL (    2318 calls)
     fft          :      0.37s CPU      0.38s WALL (     228 calls)
     ffts         :      0.16s CPU      0.16s WALL (      68 calls)
     fftw         :     26.00s CPU     26.99s WALL (  111712 calls)
     interpolate  :      0.18s CPU      0.18s WALL (      36 calls)

     Parallel routines

     PWSCF        :   1m 1.81s CPU   1m 5.64s WALL


   This run was terminated on:   7:42:45  20Aug2026            

=------------------------------------------------------------------------------=
   JOB DONE.
=------------------------------------------------------------------------------=
