
     Program PWSCF v.7.5 starts on 20Aug2026 at  7:42:46 

     This program is part of the open-source Quantum ESPRESSO suite
     for quantum simulation of materials; please cite
         "P. Giannozzi et al., J. Phys.:Condens. Matter 21 395502 (2009);
         "P. Giannozzi et al., J. Phys.:Condens. Matter 29 465901 (2017);
         "P. Giannozzi et al., J. Chem. Phys. 152 154105 (2020);
          URL http://www.quantum-espresso.org", 
     in publications or presentations arising from this work. More details at
     http://www.quantum-espresso.org/quote

     Parallel version (MPI & OpenMP), running on       2 processor cores
     Number of MPI processes:                 2
     Threads/MPI process:                     1

     MPI processes distributed on     1 nodes
     3020 MiB available memory on the printing compute node when the environment starts

     Reading input from strain_clamp_m0050/bands.in

     Current dimensions of program PWSCF are:
     Max number of different atomic species (ntypx) = 10
     Max number of k-points (npk) =  40000
     Max angular momentum in pseudopotentials (lmaxx) =  4
     file Te.rel-pbe-n-rrkjus_psl.1.0.0.UPF: wavefunction(s)  5S renormalized

     Atomic positions and unit cell read from directory:
     /home/user/workspace/qe_runs/strain_clamp_m0050/out/teclamp_m0050.save/

     Message from routine setup:
     using ibrav=0 with symmetry is DISCOURAGED, use correct ibrav instead

     R & G space division:  proc/nbgrp/npool/nimage =       2
     Subspace diagonalization in iterative solution of the eigenvalue problem:
     a serial algorithm will be used


     Parallelization info
     --------------------
     sticks:   dense  smooth     PW     G-vecs:    dense   smooth      PW
     Min         741     483    147                30099    16324    2703
     Max         742     484    148                30100    16325    2706
     Sum        1483     967    295                60199    32649    5409

     Using Slab Decomposition



     bravais-lattice index     =            0
     lattice parameter (alat)  =       8.4229  a.u.
     unit-cell volume          =     684.9506 (a.u.)^3
     number of atoms/cell      =            3
     number of atomic types    =            1
     number of electrons       =        18.00
     number of Kohn-Sham states=           28
     kinetic-energy cutoff     =      50.0000  Ry
     charge density cutoff     =     300.0000  Ry
     Exchange-correlation= PBE
                           (   1   4   3   4   0   0   0)
     Non magnetic calculation with spin-orbit


     celldm(1)=   8.422887  celldm(2)=   0.000000  celldm(3)=   0.000000
     celldm(4)=   0.000000  celldm(5)=   0.000000  celldm(6)=   0.000000

     crystal axes: (cart. coord. in units of alat)
               a(1) = (   1.000000   0.000000   0.000000 )  
               a(2) = (  -0.500000   0.866025   0.000000 )  
               a(3) = (   0.000000   0.000000   1.323566 )  

     reciprocal axes: (cart. coord. in units 2 pi/alat)
               b(1) = (  1.000000  0.577350 -0.000000 )  
               b(2) = (  0.000000  1.154701  0.000000 )  
               b(3) = (  0.000000 -0.000000  0.755534 )  


     PseudoPot. # 1 for Te read from file:
     /home/user/workspace/qe_runs/pseudo/Te.rel-pbe-n-rrkjus_psl.1.0.0.UPF
     MD5 check sum: 7fd30b6833abd190471e4dcc2367351b
     Pseudo is Ultrasoft + core correction, Zval =  6.0
     Generated using &quot;atomic&quot; code by A. Dal Corso  v.6.3
     Using radial grid of 1245 points, 10 beta functions with: 
                l(1) =   0
                l(2) =   0
                l(3) =   1
                l(4) =   1
                l(5) =   1
                l(6) =   1
                l(7) =   2
                l(8) =   2
                l(9) =   2
               l(10) =   2
     Q(r) pseudized with 0 coefficients 


     atomic species   valence    mass     pseudopotential
     Te                6.00   127.60000     Te( 1.00)

      6 Sym. Ops. (no inversion) found ( 4 have fractional translation)


                                    s                        frac. trans.

      isym =  1     identity                                     

 cryst.   s( 1) = (     1          0          0      )
                  (     0          1          0      )
                  (     0          0          1      )

 cart.    s( 1) = (  1.0000000  0.0000000  0.0000000 )
                  (  0.0000000  1.0000000  0.0000000 )
                  (  0.0000000  0.0000000  1.0000000 )


      isym =  2     180 deg rotation - cart. axis [1,0,0]        

 cryst.   s( 2) = (     1          0          0      )    f =(  0.0000000 )
                  (    -1         -1          0      )       (  0.0000000 )
                  (     0          0         -1      )       (  0.3333334 )

 cart.    s( 2) = (  1.0000000  0.0000000  0.0000000 )    f =(  0.0000000 )
                  (  0.0000000 -1.0000000  0.0000000 )       (  0.0000000 )
                  (  0.0000000  0.0000000 -1.0000000 )       (  0.4411889 )


      isym =  3     120 deg rotation - cryst. axis [0,0,1]       

 cryst.   s( 3) = (     0          1          0      )    f =(  0.0000000 )
                  (    -1         -1          0      )       (  0.0000000 )
                  (     0          0          1      )       ( -0.3333333 )

 cart.    s( 3) = ( -0.5000000 -0.8660255  0.0000000 )    f =(  0.0000000 )
                  (  0.8660253 -0.5000000  0.0000000 )       (  0.0000000 )
                  (  0.0000000  0.0000000  1.0000000 )       ( -0.4411887 )


      isym =  4     120 deg rotation - cryst. axis [0,0,-1]      

 cryst.   s( 4) = (    -1         -1          0      )    f =(  0.0000000 )
                  (     1          0          0      )       (  0.0000000 )
                  (     0          0          1      )       (  0.3333334 )

 cart.    s( 4) = ( -0.5000000  0.8660255  0.0000000 )    f =(  0.0000000 )
                  ( -0.8660253 -0.5000000  0.0000000 )       (  0.0000000 )
                  (  0.0000000  0.0000000  1.0000000 )       (  0.4411889 )


      isym =  5     180 deg rotation - cryst. axis [0,1,0]       

 cryst.   s( 5) = (    -1         -1          0      )    f =(  0.0000000 )
                  (     0          1          0      )       (  0.0000000 )
                  (     0          0         -1      )       ( -0.3333333 )

 cart.    s( 5) = ( -0.5000000 -0.8660255  0.0000000 )    f =(  0.0000000 )
                  ( -0.8660253  0.5000000  0.0000000 )       (  0.0000000 )
                  (  0.0000000  0.0000000 -1.0000000 )       ( -0.4411887 )


      isym =  6     180 deg rotation - cryst. axis [1,1,0]       

 cryst.   s( 6) = (     0          1          0      )
                  (     1          0          0      )
                  (     0          0         -1      )

 cart.    s( 6) = ( -0.5000000  0.8660255  0.0000000 )
                  (  0.8660253  0.5000000  0.0000000 )
                  (  0.0000000  0.0000000 -1.0000000 )


   Cartesian axes

     site n.     atom                  positions (alat units)
         1        Te     tau(   1) = (   0.2636000   0.0000000   0.4411887  )
         2        Te     tau(   2) = (  -0.1318000   0.2282843   0.8823776  )
         3        Te     tau(   3) = (  -0.1318000  -0.2282843   0.0000000  )

   Crystallographic axes

     site n.     atom                  positions (cryst. coord.)
         1        Te     tau(   1) = (  0.2636000  0.0000000  0.3333333  )
         2        Te     tau(   2) = (  0.0000000  0.2636000  0.6666667  )
         3        Te     tau(   3) = ( -0.2636000 -0.2636000  0.0000000  )

     number of k points=     7  Gaussian smearing, width (Ry)=  0.0100
                       cart. coord. in units 2pi/alat
        k(    1) = (   0.3333333   0.5773503   0.0000000), wk =   0.1428571
        k(    2) = (   0.3333333   0.5773503   0.1511069), wk =   0.1428571
        k(    3) = (   0.3333333   0.5773503   0.3022138), wk =   0.1428571
        k(    4) = (   0.3333333   0.5773503   0.3777672), wk =   0.1428571
        k(    5) = (   0.3333333   0.5773503   0.4533207), wk =   0.1428571
        k(    6) = (   0.3333333   0.5773503   0.6044276), wk =   0.1428571
        k(    7) = (   0.0000000   0.0000000   0.3777672), wk =   0.1428571

                       cryst. coord.
        k(    1) = (   0.3333333   0.3333333   0.0000000), wk =   0.1428571
        k(    2) = (   0.3333333   0.3333333   0.2000000), wk =   0.1428571
        k(    3) = (   0.3333333   0.3333333   0.4000000), wk =   0.1428571
        k(    4) = (   0.3333333   0.3333333   0.5000000), wk =   0.1428571
        k(    5) = (   0.3333333   0.3333333   0.6000000), wk =   0.1428571
        k(    6) = (   0.3333333   0.3333333   0.8000000), wk =   0.1428571
        k(    7) = (   0.0000000   0.0000000   0.5000000), wk =   0.1428571

     Dense  grid:    60199 G-vectors     FFT dimensions: (  48,  48,  72)

     Smooth grid:    32649 G-vectors     FFT dimensions: (  40,  40,  54)

     Dynamical RAM for                 wfc:       1.75 MB

     Dynamical RAM for     wfc (w. buffer):       1.75 MB

     Dynamical RAM for           str. fact:       0.46 MB

     Dynamical RAM for           local pot:       0.00 MB

     Dynamical RAM for          nlocal pot:       3.18 MB

     Dynamical RAM for                qrad:       3.64 MB

     Dynamical RAM for          rho,v,vnew:      13.11 MB

     Dynamical RAM for           G-vectors:       1.85 MB

     Dynamical RAM for          h,s,v(r/c):       0.14 MB

     Dynamical RAM for          <psi|beta>:       0.09 MB

     Dynamical RAM for                 psi:       3.49 MB

     Dynamical RAM for                hpsi:       3.49 MB

     Dynamical RAM for                spsi:       3.49 MB

     Dynamical RAM for      wfcinit/wfcrot:       2.64 MB

     Dynamical RAM for           addusdens:     281.54 MB

     Estimated static dynamical RAM per process >      29.96 MB

     Estimated max dynamical RAM per process >     311.51 MB

     Estimated total dynamical RAM >     623.01 MB

     The potential is recalculated from file :
     /home/user/workspace/qe_runs/strain_clamp_m0050/out/teclamp_m0050.save/charge-density

     Starting wfcs are   24 randomized atomic wfcs +    4 random wfcs

     Band Structure Calculation
     Davidson diagonalization with overlap

     Computing kpt #:     1  of     7
     total cpu time spent up to now is        1.9 secs

     Computing kpt #:     2  of     7
     total cpu time spent up to now is        2.7 secs

     Computing kpt #:     3  of     7
     total cpu time spent up to now is        3.4 secs

     Computing kpt #:     4  of     7
     total cpu time spent up to now is        4.3 secs

     Computing kpt #:     5  of     7
     total cpu time spent up to now is        5.1 secs

     Computing kpt #:     6  of     7
     total cpu time spent up to now is        5.8 secs

     Computing kpt #:     7  of     7
     total cpu time spent up to now is        6.6 secs

     ethr =  1.00E-06,  avg # of iterations = 36.0

     total cpu time spent up to now is        6.6 secs

     End of band structure calculation

          k = 0.3333 0.5774 0.0000 (  4104 PWs)   bands (ev):

    -6.4716  -6.4716  -4.6101  -4.6070  -4.6070  -4.5951   1.2721   1.4602
     1.4602   1.4759   2.8160   2.8160   2.9103   3.1135   3.1135   3.1422
     3.5003   3.5003   8.8243   8.8660   9.0332   9.0332   9.2829   9.2829
    10.8967  10.8967  11.9123  11.9123

          k = 0.3333 0.5774 0.1511 (  4098 PWs)   bands (ev):

    -6.3656  -6.3600  -5.0899  -5.0846  -4.2171  -4.2063   0.8999   0.9285
     1.2726   1.4203   2.0076   2.1224   3.0711   3.2507   4.1330   4.1976
     4.5228   4.7311   8.1190   8.2658   8.6733   8.7342   8.7444   8.8068
    11.1867  11.2380  11.6612  11.7029

          k = 0.3333 0.5774 0.3022 (  4074 PWs)   bands (ev):

    -6.0588  -6.0490  -5.6050  -5.5945  -3.9751  -3.9690   0.8009   0.8050
     0.8672   0.9033   1.2024   1.3087   4.4404   4.5425   5.4319   5.6437
     5.6959   6.0535   6.6971   6.7916   7.6131   7.7830   7.8669   7.9136
    11.8334  11.8529  12.0549  12.0998

          k = 0.3333 0.5774 0.3778 (  4092 PWs)   bands (ev):

    -5.8455  -5.8455  -5.8384  -5.8311  -3.9387  -3.9387   0.7685   0.7685
     0.9175   0.9709   1.0443   1.0443   4.9002   4.9002   5.8765   5.8765
     6.1273   6.2632   6.2632   6.2665   7.3984   7.4630   7.6306   7.6306
    11.9407  11.9407  12.6107  12.6147

          k = 0.3333 0.5774 0.4533 (  4074 PWs)   bands (ev):

    -6.0588  -6.0490  -5.6050  -5.5945  -3.9751  -3.9690   0.8009   0.8050
     0.8672   0.9033   1.2024   1.3087   4.4404   4.5425   5.4319   5.6437
     5.6959   6.0535   6.6971   6.7916   7.6131   7.7830   7.8669   7.9136
    11.8334  11.8529  12.0549  12.0998

          k = 0.3333 0.5774 0.6044 (  4098 PWs)   bands (ev):

    -6.3656  -6.3600  -5.0899  -5.0846  -4.2171  -4.2063   0.8999   0.9285
     1.2726   1.4203   2.0076   2.1224   3.0711   3.2507   4.1330   4.1976
     4.5228   4.7311   8.1190   8.2658   8.6733   8.7342   8.7444   8.8068
    11.1867  11.2380  11.6613  11.7029

          k = 0.0000 0.0000 0.3778 (  4130 PWs)   bands (ev):

    -6.7366  -6.7366  -6.7335  -6.7335  -2.0861  -2.0861   1.8787   1.8787
     3.1965   3.1965   3.4835   3.4835   4.5962   4.5962   4.8203   4.8203
     5.0995   5.0995   6.5054   6.5054   6.5998   6.5998   6.8296   6.8296
    10.0810  10.0810  11.3398  11.3399

     Writing all to output data dir /home/user/workspace/qe_runs/strain_clamp_m0050/out/teclamp_m0050.save/ :
     XML data file, pseudopotentials, collected wavefunctions

     init_run     :      0.88s CPU      1.00s WALL (       1 calls)
     electrons    :      5.31s CPU      5.49s WALL (       1 calls)

     Called by init_run:
     wfcinit      :      0.00s CPU      0.00s WALL (       1 calls)
     wfcinit:atom :      0.00s CPU      0.00s WALL (       7 calls)
     wfcinit:wfcr :      0.24s CPU      0.27s WALL (       7 calls)
     potinit      :      0.16s CPU      0.18s WALL (       1 calls)
     hinit0       :      0.46s CPU      0.46s WALL (       1 calls)

     Called by electrons:
     c_bands      :      5.31s CPU      5.49s WALL (       1 calls)
     v_of_rho     :      0.02s CPU      0.03s WALL (       1 calls)
     v_h          :      0.00s CPU      0.00s WALL (       1 calls)
     v_xc         :      0.02s CPU      0.03s WALL (       1 calls)
     newd         :      0.24s CPU      0.34s WALL (       1 calls)

     Called by c_bands:
     init_us_2    :      0.00s CPU      0.01s WALL (       7 calls)
     cegterg      :      4.89s CPU      5.03s WALL (      16 calls)

     Called by sum_band:

     Called by *egterg:
     cdiaghg      :      0.21s CPU      0.21s WALL (     259 calls)
     cegterg:over :      0.27s CPU      0.28s WALL (     252 calls)
     cegterg:upda :      0.18s CPU      0.18s WALL (     252 calls)
     cegterg:last :      0.35s CPU      0.35s WALL (     103 calls)
     h_psi        :      3.73s CPU      3.88s WALL (     275 calls)
     s_psi        :      0.24s CPU      0.24s WALL (     275 calls)
     g_psi        :      0.05s CPU      0.05s WALL (     252 calls)

     Called by h_psi:
     h_psi:calbec :      0.27s CPU      0.29s WALL (     275 calls)
     vloc_psi     :      3.20s CPU      3.32s WALL (     275 calls)
                                        0.00s GPU  (     275 calls)
     add_vuspsi   :      0.23s CPU      0.24s WALL (     275 calls)

     General routines
     calbec       :      0.27s CPU      0.29s WALL (     275 calls)
     fft          :      0.21s CPU      0.21s WALL (      19 calls)
     ffts         :      0.13s CPU      0.14s WALL (       4 calls)
     fftw         :      2.79s CPU      2.89s WALL (   12424 calls)
     interpolate  :      0.14s CPU      0.14s WALL (       4 calls)
     davcio       :      0.01s CPU      0.01s WALL (      14 calls)

     Parallel routines

     PWSCF        :      6.35s CPU      8.19s WALL


   This run was terminated on:   7:42:54  20Aug2026            

=------------------------------------------------------------------------------=
   JOB DONE.
=------------------------------------------------------------------------------=
