
     Program PWSCF v.7.5 starts on 20Aug2026 at  7:45:18 

     This program is part of the open-source Quantum ESPRESSO suite
     for quantum simulation of materials; please cite
         "P. Giannozzi et al., J. Phys.:Condens. Matter 21 395502 (2009);
         "P. Giannozzi et al., J. Phys.:Condens. Matter 29 465901 (2017);
         "P. Giannozzi et al., J. Chem. Phys. 152 154105 (2020);
          URL http://www.quantum-espresso.org", 
     in publications or presentations arising from this work. More details at
     http://www.quantum-espresso.org/quote

     Parallel version (MPI & OpenMP), running on       2 processor cores
     Number of MPI processes:                 2
     Threads/MPI process:                     1

     MPI processes distributed on     1 nodes
     2721 MiB available memory on the printing compute node when the environment starts

     Reading input from strain_clamp_p0025/bands.in

     Current dimensions of program PWSCF are:
     Max number of different atomic species (ntypx) = 10
     Max number of k-points (npk) =  40000
     Max angular momentum in pseudopotentials (lmaxx) =  4
     file Te.rel-pbe-n-rrkjus_psl.1.0.0.UPF: wavefunction(s)  5S renormalized

     Atomic positions and unit cell read from directory:
     /home/user/workspace/qe_runs/strain_clamp_p0025/out/teclamp_p0025.save/

     Message from routine setup:
     using ibrav=0 with symmetry is DISCOURAGED, use correct ibrav instead

     R & G space division:  proc/nbgrp/npool/nimage =       2
     Subspace diagonalization in iterative solution of the eigenvalue problem:
     a serial algorithm will be used


     Parallelization info
     --------------------
     sticks:   dense  smooth     PW     G-vecs:    dense   smooth      PW
     Min         741     482    147                30291    16438    2709
     Max         742     485    148                30292    16439    2712
     Sum        1483     967    295                60583    32877    5421

     Using Slab Decomposition



     bravais-lattice index     =            0
     lattice parameter (alat)  =       8.4229  a.u.
     unit-cell volume          =     690.1057 (a.u.)^3
     number of atoms/cell      =            3
     number of atomic types    =            1
     number of electrons       =        18.00
     number of Kohn-Sham states=           28
     kinetic-energy cutoff     =      50.0000  Ry
     charge density cutoff     =     300.0000  Ry
     Exchange-correlation= PBE
                           (   1   4   3   4   0   0   0)
     Non magnetic calculation with spin-orbit


     celldm(1)=   8.422887  celldm(2)=   0.000000  celldm(3)=   0.000000
     celldm(4)=   0.000000  celldm(5)=   0.000000  celldm(6)=   0.000000

     crystal axes: (cart. coord. in units of alat)
               a(1) = (   1.000000   0.000000   0.000000 )  
               a(2) = (  -0.500000   0.866025   0.000000 )  
               a(3) = (   0.000000   0.000000   1.333528 )  

     reciprocal axes: (cart. coord. in units 2 pi/alat)
               b(1) = (  1.000000  0.577350 -0.000000 )  
               b(2) = (  0.000000  1.154701  0.000000 )  
               b(3) = (  0.000000 -0.000000  0.749891 )  


     PseudoPot. # 1 for Te read from file:
     /home/user/workspace/qe_runs/pseudo/Te.rel-pbe-n-rrkjus_psl.1.0.0.UPF
     MD5 check sum: 7fd30b6833abd190471e4dcc2367351b
     Pseudo is Ultrasoft + core correction, Zval =  6.0
     Generated using &quot;atomic&quot; code by A. Dal Corso  v.6.3
     Using radial grid of 1245 points, 10 beta functions with: 
                l(1) =   0
                l(2) =   0
                l(3) =   1
                l(4) =   1
                l(5) =   1
                l(6) =   1
                l(7) =   2
                l(8) =   2
                l(9) =   2
               l(10) =   2
     Q(r) pseudized with 0 coefficients 


     atomic species   valence    mass     pseudopotential
     Te                6.00   127.60000     Te( 1.00)

      6 Sym. Ops. (no inversion) found ( 4 have fractional translation)


                                    s                        frac. trans.

      isym =  1     identity                                     

 cryst.   s( 1) = (     1          0          0      )
                  (     0          1          0      )
                  (     0          0          1      )

 cart.    s( 1) = (  1.0000000  0.0000000  0.0000000 )
                  (  0.0000000  1.0000000  0.0000000 )
                  (  0.0000000  0.0000000  1.0000000 )


      isym =  2     180 deg rotation - cart. axis [1,0,0]        

 cryst.   s( 2) = (     1          0          0      )    f =(  0.0000000 )
                  (    -1         -1          0      )       (  0.0000000 )
                  (     0          0         -1      )       (  0.3333334 )

 cart.    s( 2) = (  1.0000000  0.0000000  0.0000000 )    f =(  0.0000000 )
                  (  0.0000000 -1.0000000  0.0000000 )       (  0.0000000 )
                  (  0.0000000  0.0000000 -1.0000000 )       (  0.4445093 )


      isym =  3     120 deg rotation - cryst. axis [0,0,1]       

 cryst.   s( 3) = (     0          1          0      )    f =( -0.0000000 )
                  (    -1         -1          0      )       (  0.0000000 )
                  (     0          0          1      )       ( -0.3333333 )

 cart.    s( 3) = ( -0.5000000 -0.8660255  0.0000000 )    f =( -0.0000000 )
                  (  0.8660253 -0.5000000  0.0000000 )       (  0.0000000 )
                  (  0.0000000  0.0000000  1.0000000 )       ( -0.4445092 )


      isym =  4     120 deg rotation - cryst. axis [0,0,-1]      

 cryst.   s( 4) = (    -1         -1          0      )    f =( -0.0000000 )
                  (     1          0          0      )       (  0.0000000 )
                  (     0          0          1      )       (  0.3333334 )

 cart.    s( 4) = ( -0.5000000  0.8660255  0.0000000 )    f =( -0.0000000 )
                  ( -0.8660253 -0.5000000  0.0000000 )       (  0.0000000 )
                  (  0.0000000  0.0000000  1.0000000 )       (  0.4445093 )


      isym =  5     180 deg rotation - cryst. axis [0,1,0]       

 cryst.   s( 5) = (    -1         -1          0      )    f =( -0.0000000 )
                  (     0          1          0      )       (  0.0000000 )
                  (     0          0         -1      )       ( -0.3333333 )

 cart.    s( 5) = ( -0.5000000 -0.8660255  0.0000000 )    f =( -0.0000000 )
                  ( -0.8660253  0.5000000  0.0000000 )       (  0.0000000 )
                  (  0.0000000  0.0000000 -1.0000000 )       ( -0.4445092 )


      isym =  6     180 deg rotation - cryst. axis [1,1,0]       

 cryst.   s( 6) = (     0          1          0      )
                  (     1          0          0      )
                  (     0          0         -1      )

 cart.    s( 6) = ( -0.5000000  0.8660255  0.0000000 )
                  (  0.8660253  0.5000000  0.0000000 )
                  (  0.0000000  0.0000000 -1.0000000 )


   Cartesian axes

     site n.     atom                  positions (alat units)
         1        Te     tau(   1) = (   0.2636000   0.0000000   0.4445092  )
         2        Te     tau(   2) = (  -0.1318000   0.2282843   0.8890186  )
         3        Te     tau(   3) = (  -0.1318000  -0.2282843   0.0000000  )

   Crystallographic axes

     site n.     atom                  positions (cryst. coord.)
         1        Te     tau(   1) = (  0.2636000  0.0000000  0.3333333  )
         2        Te     tau(   2) = ( -0.0000000  0.2636000  0.6666667  )
         3        Te     tau(   3) = ( -0.2636000 -0.2636000  0.0000000  )

     number of k points=     7  Gaussian smearing, width (Ry)=  0.0100
                       cart. coord. in units 2pi/alat
        k(    1) = (   0.3333333   0.5773503   0.0000000), wk =   0.1428571
        k(    2) = (   0.3333333   0.5773503   0.1499781), wk =   0.1428571
        k(    3) = (   0.3333333   0.5773503   0.2999563), wk =   0.1428571
        k(    4) = (   0.3333333   0.5773503   0.3749453), wk =   0.1428571
        k(    5) = (   0.3333333   0.5773503   0.4499344), wk =   0.1428571
        k(    6) = (   0.3333333   0.5773503   0.5999125), wk =   0.1428571
        k(    7) = (   0.0000000   0.0000000   0.3749453), wk =   0.1428571

                       cryst. coord.
        k(    1) = (   0.3333333   0.3333333   0.0000000), wk =   0.1428571
        k(    2) = (   0.3333333   0.3333333   0.2000000), wk =   0.1428571
        k(    3) = (   0.3333333   0.3333333   0.4000000), wk =   0.1428571
        k(    4) = (   0.3333333   0.3333333   0.5000000), wk =   0.1428571
        k(    5) = (   0.3333333   0.3333333   0.6000000), wk =   0.1428571
        k(    6) = (   0.3333333   0.3333333   0.8000000), wk =   0.1428571
        k(    7) = (   0.0000000   0.0000000   0.5000000), wk =   0.1428571

     Dense  grid:    60583 G-vectors     FFT dimensions: (  48,  48,  72)

     Smooth grid:    32877 G-vectors     FFT dimensions: (  40,  40,  54)

     Dynamical RAM for                 wfc:       1.76 MB

     Dynamical RAM for     wfc (w. buffer):       1.76 MB

     Dynamical RAM for           str. fact:       0.46 MB

     Dynamical RAM for           local pot:       0.00 MB

     Dynamical RAM for          nlocal pot:       3.21 MB

     Dynamical RAM for                qrad:       3.64 MB

     Dynamical RAM for          rho,v,vnew:      13.14 MB

     Dynamical RAM for           G-vectors:       1.86 MB

     Dynamical RAM for          h,s,v(r/c):       0.14 MB

     Dynamical RAM for          <psi|beta>:       0.09 MB

     Dynamical RAM for                 psi:       3.52 MB

     Dynamical RAM for                hpsi:       3.52 MB

     Dynamical RAM for                spsi:       3.52 MB

     Dynamical RAM for      wfcinit/wfcrot:       2.66 MB

     Dynamical RAM for           addusdens:     283.34 MB

     Estimated static dynamical RAM per process >      30.06 MB

     Estimated max dynamical RAM per process >     313.40 MB

     Estimated total dynamical RAM >     626.79 MB

     The potential is recalculated from file :
     /home/user/workspace/qe_runs/strain_clamp_p0025/out/teclamp_p0025.save/charge-density

     Starting wfcs are   24 randomized atomic wfcs +    4 random wfcs

     Band Structure Calculation
     Davidson diagonalization with overlap

     Computing kpt #:     1  of     7
     total cpu time spent up to now is        2.0 secs

     Computing kpt #:     2  of     7
     total cpu time spent up to now is        2.7 secs

     Computing kpt #:     3  of     7
     total cpu time spent up to now is        3.4 secs

     Computing kpt #:     4  of     7
     total cpu time spent up to now is        4.4 secs

     Computing kpt #:     5  of     7
     total cpu time spent up to now is        5.1 secs

     Computing kpt #:     6  of     7
     total cpu time spent up to now is        5.8 secs

     Computing kpt #:     7  of     7
     total cpu time spent up to now is        6.7 secs

     ethr =  1.00E-06,  avg # of iterations = 32.6

     total cpu time spent up to now is        6.7 secs

     End of band structure calculation

          k = 0.3333 0.5774 0.0000 (  4140 PWs)   bands (ev):

    -6.5066  -6.5066  -4.6813  -4.6783  -4.6783  -4.6668   1.2177   1.4045
     1.4045   1.4190   2.7386   2.7386   2.8364   3.0364   3.0364   3.0660
     3.4219   3.4219   8.6979   8.7387   8.9042   8.9042   9.1507   9.1507
    10.8527  10.8527  11.8478  11.8478

          k = 0.3333 0.5774 0.1500 (  4134 PWs)   bands (ev):

    -6.4031  -6.3976  -5.1540  -5.1489  -4.2940  -4.2837   0.8591   0.8870
     1.2173   1.3638   1.9475   2.0619   2.9896   3.1700   4.0401   4.1023
     4.4276   4.6352   7.9729   8.1186   8.5510   8.6066   8.6167   8.6837
    11.1349  11.1856  11.6063  11.6434

          k = 0.3333 0.5774 0.3000 (  4110 PWs)   bands (ev):

    -6.1033  -6.0939  -5.6594  -5.6493  -4.0568  -4.0510   0.7624   0.7632
     0.8231   0.8640   1.1570   1.2630   4.3359   4.4401   5.3245   5.5335
     5.5879   5.9443   6.5504   6.6466   7.4906   7.6580   7.7476   7.7901
    11.7719  11.7922  11.9791  12.0245

          k = 0.3333 0.5774 0.3749 (  4122 PWs)   bands (ev):

    -5.8948  -5.8948  -5.8880  -5.8808  -4.0214  -4.0214   0.7265   0.7265
     0.8771   0.9304   1.0035   1.0035   4.7944   4.7944   5.7649   5.7649
     6.0131   6.1197   6.1197   6.1549   7.2772   7.3458   7.5061   7.5061
    11.8739  11.8739  12.5183  12.5244

          k = 0.3333 0.5774 0.4499 (  4110 PWs)   bands (ev):

    -6.1033  -6.0939  -5.6594  -5.6493  -4.0568  -4.0510   0.7624   0.7632
     0.8231   0.8640   1.1570   1.2630   4.3359   4.4401   5.3245   5.5335
     5.5879   5.9443   6.5504   6.6466   7.4906   7.6580   7.7476   7.7901
    11.7719  11.7922  11.9791  12.0244

          k = 0.3333 0.5774 0.5999 (  4134 PWs)   bands (ev):

    -6.4031  -6.3976  -5.1540  -5.1489  -4.2940  -4.2837   0.8591   0.8870
     1.2173   1.3638   1.9475   2.0619   2.9896   3.1700   4.0401   4.1023
     4.4276   4.6352   7.9729   8.1186   8.5510   8.6066   8.6167   8.6837
    11.1348  11.1856  11.6064  11.6434

          k = 0.0000 0.0000 0.3749 (  4142 PWs)   bands (ev):

    -6.7820  -6.7820  -6.7790  -6.7790  -2.2136  -2.2136   1.7958   1.7958
     3.1504   3.1504   3.4387   3.4387   4.5236   4.5236   4.7613   4.7613
     5.0426   5.0426   6.4194   6.4194   6.5277   6.5277   6.7528   6.7528
     9.9901   9.9901  11.2907  11.2922

     Writing all to output data dir /home/user/workspace/qe_runs/strain_clamp_p0025/out/teclamp_p0025.save/ :
     XML data file, pseudopotentials, collected wavefunctions

     init_run     :      0.88s CPU      1.01s WALL (       1 calls)
     electrons    :      5.43s CPU      5.58s WALL (       1 calls)

     Called by init_run:
     wfcinit      :      0.00s CPU      0.00s WALL (       1 calls)
     wfcinit:atom :      0.00s CPU      0.00s WALL (       7 calls)
     wfcinit:wfcr :      0.26s CPU      0.28s WALL (       7 calls)
     potinit      :      0.17s CPU      0.18s WALL (       1 calls)
     hinit0       :      0.47s CPU      0.47s WALL (       1 calls)

     Called by electrons:
     c_bands      :      5.43s CPU      5.58s WALL (       1 calls)
     v_of_rho     :      0.03s CPU      0.03s WALL (       1 calls)
     v_h          :      0.00s CPU      0.00s WALL (       1 calls)
     v_xc         :      0.03s CPU      0.03s WALL (       1 calls)
     newd         :      0.23s CPU      0.34s WALL (       1 calls)

     Called by c_bands:
     init_us_2    :      0.01s CPU      0.01s WALL (       7 calls)
     cegterg      :      4.98s CPU      5.11s WALL (      16 calls)

     Called by sum_band:

     Called by *egterg:
     cdiaghg      :      0.20s CPU      0.20s WALL (     235 calls)
     cegterg:over :      0.28s CPU      0.28s WALL (     228 calls)
     cegterg:upda :      0.17s CPU      0.17s WALL (     228 calls)
     cegterg:last :      0.34s CPU      0.35s WALL (     102 calls)
     h_psi        :      3.85s CPU      3.97s WALL (     251 calls)
     s_psi        :      0.23s CPU      0.24s WALL (     251 calls)
     g_psi        :      0.05s CPU      0.05s WALL (     228 calls)

     Called by h_psi:
     h_psi:calbec :      0.29s CPU      0.29s WALL (     251 calls)
     vloc_psi     :      3.30s CPU      3.42s WALL (     251 calls)
                                        0.00s GPU  (     251 calls)
     add_vuspsi   :      0.24s CPU      0.24s WALL (     251 calls)

     General routines
     calbec       :      0.29s CPU      0.29s WALL (     251 calls)
     fft          :      0.21s CPU      0.21s WALL (      19 calls)
     ffts         :      0.14s CPU      0.14s WALL (       4 calls)
     fftw         :      2.89s CPU      2.99s WALL (   12220 calls)
     interpolate  :      0.14s CPU      0.14s WALL (       4 calls)
     davcio       :      0.01s CPU      0.01s WALL (      14 calls)

     Parallel routines

     PWSCF        :      6.46s CPU      8.69s WALL


   This run was terminated on:   7:45:27  20Aug2026            

=------------------------------------------------------------------------------=
   JOB DONE.
=------------------------------------------------------------------------------=
