
     Program PWSCF v.7.5 starts on 20Aug2026 at  7:44:13 

     This program is part of the open-source Quantum ESPRESSO suite
     for quantum simulation of materials; please cite
         "P. Giannozzi et al., J. Phys.:Condens. Matter 21 395502 (2009);
         "P. Giannozzi et al., J. Phys.:Condens. Matter 29 465901 (2017);
         "P. Giannozzi et al., J. Chem. Phys. 152 154105 (2020);
          URL http://www.quantum-espresso.org", 
     in publications or presentations arising from this work. More details at
     http://www.quantum-espresso.org/quote

     Parallel version (MPI & OpenMP), running on       2 processor cores
     Number of MPI processes:                 2
     Threads/MPI process:                     1

     MPI processes distributed on     1 nodes
     2844 MiB available memory on the printing compute node when the environment starts

     Reading input from strain_clamp_p0025/scf.in

     Current dimensions of program PWSCF are:
     Max number of different atomic species (ntypx) = 10
     Max number of k-points (npk) =  40000
     Max angular momentum in pseudopotentials (lmaxx) =  4
     file Te.rel-pbe-n-rrkjus_psl.1.0.0.UPF: wavefunction(s)  5S renormalized
     Message from routine setup:
     using ibrav=0 with symmetry is DISCOURAGED, use correct ibrav instead

     R & G space division:  proc/nbgrp/npool/nimage =       2
     Subspace diagonalization in iterative solution of the eigenvalue problem:
     a serial algorithm will be used


     Parallelization info
     --------------------
     sticks:   dense  smooth     PW     G-vecs:    dense   smooth      PW
     Min         741     482    141                30291    16438    2589
     Max         742     485    142                30292    16439    2592
     Sum        1483     967    283                60583    32877    5181

     Using Slab Decomposition



     bravais-lattice index     =            0
     lattice parameter (alat)  =       8.4229  a.u.
     unit-cell volume          =     690.1057 (a.u.)^3
     number of atoms/cell      =            3
     number of atomic types    =            1
     number of electrons       =        18.00
     number of Kohn-Sham states=           26
     kinetic-energy cutoff     =      50.0000  Ry
     charge density cutoff     =     300.0000  Ry
     scf convergence threshold =      1.0E-08
     mixing beta               =       0.4000
     number of iterations used =            8  plain     mixing
     Exchange-correlation= PBE
                           (   1   4   3   4   0   0   0)
     Non magnetic calculation with spin-orbit


     celldm(1)=   8.422887  celldm(2)=   0.000000  celldm(3)=   0.000000
     celldm(4)=   0.000000  celldm(5)=   0.000000  celldm(6)=   0.000000

     crystal axes: (cart. coord. in units of alat)
               a(1) = (   1.000000   0.000000   0.000000 )  
               a(2) = (  -0.500000   0.866025   0.000000 )  
               a(3) = (   0.000000   0.000000   1.333528 )  

     reciprocal axes: (cart. coord. in units 2 pi/alat)
               b(1) = (  1.000000  0.577350 -0.000000 )  
               b(2) = (  0.000000  1.154701  0.000000 )  
               b(3) = (  0.000000 -0.000000  0.749891 )  


     PseudoPot. # 1 for Te read from file:
     /home/user/workspace/qe_runs/pseudo/Te.rel-pbe-n-rrkjus_psl.1.0.0.UPF
     MD5 check sum: 7fd30b6833abd190471e4dcc2367351b
     Pseudo is Ultrasoft + core correction, Zval =  6.0
     Generated using &quot;atomic&quot; code by A. Dal Corso  v.6.3
     Using radial grid of 1245 points, 10 beta functions with: 
                l(1) =   0
                l(2) =   0
                l(3) =   1
                l(4) =   1
                l(5) =   1
                l(6) =   1
                l(7) =   2
                l(8) =   2
                l(9) =   2
               l(10) =   2
     Q(r) pseudized with 0 coefficients 


     atomic species   valence    mass     pseudopotential
     Te                6.00   127.60000     Te( 1.00)

      6 Sym. Ops. (no inversion) found ( 4 have fractional translation)


                                    s                        frac. trans.

      isym =  1     identity                                     

 cryst.   s( 1) = (     1          0          0      )
                  (     0          1          0      )
                  (     0          0          1      )

 cart.    s( 1) = (  1.0000000  0.0000000  0.0000000 )
                  (  0.0000000  1.0000000  0.0000000 )
                  (  0.0000000  0.0000000  1.0000000 )


      isym =  2     180 deg rotation - cart. axis [1,0,0]        

 cryst.   s( 2) = (     1          0          0      )    f =(  0.0000000 )
                  (    -1         -1          0      )       (  0.0000000 )
                  (     0          0         -1      )       (  0.3333334 )

 cart.    s( 2) = (  1.0000000  0.0000000  0.0000000 )    f =(  0.0000000 )
                  (  0.0000000 -1.0000000  0.0000000 )       (  0.0000000 )
                  (  0.0000000  0.0000000 -1.0000000 )       (  0.4445093 )


      isym =  3     120 deg rotation - cryst. axis [0,0,1]       

 cryst.   s( 3) = (     0          1          0      )    f =(  0.0000000 )
                  (    -1         -1          0      )       (  0.0000000 )
                  (     0          0          1      )       ( -0.3333333 )

 cart.    s( 3) = ( -0.5000000 -0.8660255  0.0000000 )    f =(  0.0000000 )
                  (  0.8660253 -0.5000000  0.0000000 )       (  0.0000000 )
                  (  0.0000000  0.0000000  1.0000000 )       ( -0.4445092 )


      isym =  4     120 deg rotation - cryst. axis [0,0,-1]      

 cryst.   s( 4) = (    -1         -1          0      )    f =(  0.0000000 )
                  (     1          0          0      )       (  0.0000000 )
                  (     0          0          1      )       (  0.3333334 )

 cart.    s( 4) = ( -0.5000000  0.8660255  0.0000000 )    f =(  0.0000000 )
                  ( -0.8660253 -0.5000000  0.0000000 )       (  0.0000000 )
                  (  0.0000000  0.0000000  1.0000000 )       (  0.4445093 )


      isym =  5     180 deg rotation - cryst. axis [0,1,0]       

 cryst.   s( 5) = (    -1         -1          0      )    f =(  0.0000000 )
                  (     0          1          0      )       (  0.0000000 )
                  (     0          0         -1      )       ( -0.3333333 )

 cart.    s( 5) = ( -0.5000000 -0.8660255  0.0000000 )    f =(  0.0000000 )
                  ( -0.8660253  0.5000000  0.0000000 )       (  0.0000000 )
                  (  0.0000000  0.0000000 -1.0000000 )       ( -0.4445092 )


      isym =  6     180 deg rotation - cryst. axis [1,1,0]       

 cryst.   s( 6) = (     0          1          0      )
                  (     1          0          0      )
                  (     0          0         -1      )

 cart.    s( 6) = ( -0.5000000  0.8660255  0.0000000 )
                  (  0.8660253  0.5000000  0.0000000 )
                  (  0.0000000  0.0000000 -1.0000000 )


   Cartesian axes

     site n.     atom                  positions (alat units)
         1        Te     tau(   1) = (   0.2636000   0.0000000   0.4445092  )
         2        Te     tau(   2) = (  -0.1318000   0.2282843   0.8890186  )
         3        Te     tau(   3) = (  -0.1318000  -0.2282843   0.0000000  )

   Crystallographic axes

     site n.     atom                  positions (cryst. coord.)
         1        Te     tau(   1) = (  0.2636000  0.0000000  0.3333333  )
         2        Te     tau(   2) = (  0.0000000  0.2636000  0.6666667  )
         3        Te     tau(   3) = ( -0.2636000 -0.2636000  0.0000000  )

     number of k points=    34  Gaussian smearing, width (Ry)=  0.0100
                       cart. coord. in units 2pi/alat
        k(    1) = (   0.0000000   0.0000000   0.0000000), wk =   0.0046296
        k(    2) = (   0.0000000   0.0000000   0.1249818), wk =   0.0092593
        k(    3) = (   0.0000000   0.0000000   0.2499635), wk =   0.0092593
        k(    4) = (   0.0000000   0.0000000  -0.3749453), wk =   0.0046296
        k(    5) = (   0.0000000   0.1924501   0.0000000), wk =   0.0277778
        k(    6) = (   0.0000000   0.1924501   0.1249818), wk =   0.0277778
        k(    7) = (   0.0000000   0.1924501   0.2499635), wk =   0.0277778
        k(    8) = (   0.0000000   0.1924501  -0.3749453), wk =   0.0277778
        k(    9) = (   0.0000000   0.3849002   0.0000000), wk =   0.0277778
        k(   10) = (   0.0000000   0.3849002   0.1249818), wk =   0.0277778
        k(   11) = (   0.0000000   0.3849002   0.2499635), wk =   0.0277778
        k(   12) = (   0.0000000   0.3849002  -0.3749453), wk =   0.0277778
        k(   13) = (   0.0000000  -0.5773503   0.0000000), wk =   0.0138889
        k(   14) = (   0.0000000  -0.5773503   0.1249818), wk =   0.0277778
        k(   15) = (   0.0000000  -0.5773503   0.2499635), wk =   0.0277778
        k(   16) = (   0.0000000  -0.5773503  -0.3749453), wk =   0.0138889
        k(   17) = (   0.1666667   0.2886752   0.0000000), wk =   0.0277778
        k(   18) = (   0.1666667   0.2886752   0.1249818), wk =   0.0555556
        k(   19) = (   0.1666667   0.2886752   0.2499635), wk =   0.0555556
        k(   20) = (   0.1666667   0.2886752  -0.3749453), wk =   0.0277778
        k(   21) = (   0.1666667   0.4811253   0.0000000), wk =   0.0555556
        k(   22) = (   0.1666667   0.4811253   0.1249818), wk =   0.0555556
        k(   23) = (   0.1666667   0.4811253   0.2499635), wk =   0.0555556
        k(   24) = (   0.1666667   0.4811253  -0.3749453), wk =   0.0555556
        k(   25) = (   0.3333333   0.5773503   0.0000000), wk =   0.0092593
        k(   26) = (   0.3333333   0.5773503   0.1249818), wk =   0.0185185
        k(   27) = (   0.3333333   0.5773503   0.2499635), wk =   0.0185185
        k(   28) = (   0.3333333   0.5773503  -0.3749453), wk =   0.0092593
        k(   29) = (   0.0000000   0.1924501  -0.1249818), wk =   0.0277778
        k(   30) = (   0.0000000   0.1924501  -0.2499635), wk =   0.0277778
        k(   31) = (   0.0000000   0.3849002  -0.1249818), wk =   0.0277778
        k(   32) = (   0.0000000   0.3849002  -0.2499635), wk =   0.0277778
        k(   33) = (  -0.1666667   0.4811253  -0.1249818), wk =   0.0555556
        k(   34) = (  -0.1666667   0.4811253  -0.2499635), wk =   0.0555556

                       cryst. coord.
        k(    1) = (   0.0000000   0.0000000   0.0000000), wk =   0.0046296
        k(    2) = (   0.0000000   0.0000000   0.1666667), wk =   0.0092593
        k(    3) = (   0.0000000   0.0000000   0.3333333), wk =   0.0092593
        k(    4) = (   0.0000000   0.0000000  -0.5000000), wk =   0.0046296
        k(    5) = (   0.0000000   0.1666667   0.0000000), wk =   0.0277778
        k(    6) = (   0.0000000   0.1666667   0.1666667), wk =   0.0277778
        k(    7) = (   0.0000000   0.1666667   0.3333333), wk =   0.0277778
        k(    8) = (   0.0000000   0.1666667  -0.5000000), wk =   0.0277778
        k(    9) = (   0.0000000   0.3333333   0.0000000), wk =   0.0277778
        k(   10) = (   0.0000000   0.3333333   0.1666667), wk =   0.0277778
        k(   11) = (   0.0000000   0.3333333   0.3333333), wk =   0.0277778
        k(   12) = (   0.0000000   0.3333333  -0.5000000), wk =   0.0277778
        k(   13) = (   0.0000000  -0.5000000   0.0000000), wk =   0.0138889
        k(   14) = (   0.0000000  -0.5000000   0.1666667), wk =   0.0277778
        k(   15) = (   0.0000000  -0.5000000   0.3333333), wk =   0.0277778
        k(   16) = (   0.0000000  -0.5000000  -0.5000000), wk =   0.0138889
        k(   17) = (   0.1666667   0.1666667   0.0000000), wk =   0.0277778
        k(   18) = (   0.1666667   0.1666667   0.1666667), wk =   0.0555556
        k(   19) = (   0.1666667   0.1666667   0.3333333), wk =   0.0555556
        k(   20) = (   0.1666667   0.1666667  -0.5000000), wk =   0.0277778
        k(   21) = (   0.1666667   0.3333333   0.0000000), wk =   0.0555556
        k(   22) = (   0.1666667   0.3333333   0.1666667), wk =   0.0555556
        k(   23) = (   0.1666667   0.3333333   0.3333333), wk =   0.0555556
        k(   24) = (   0.1666667   0.3333333  -0.5000000), wk =   0.0555556
        k(   25) = (   0.3333333   0.3333333   0.0000000), wk =   0.0092593
        k(   26) = (   0.3333333   0.3333333   0.1666667), wk =   0.0185185
        k(   27) = (   0.3333333   0.3333333   0.3333333), wk =   0.0185185
        k(   28) = (   0.3333333   0.3333333  -0.5000000), wk =   0.0092593
        k(   29) = (   0.0000000   0.1666667  -0.1666667), wk =   0.0277778
        k(   30) = (   0.0000000   0.1666667  -0.3333333), wk =   0.0277778
        k(   31) = (   0.0000000   0.3333333  -0.1666667), wk =   0.0277778
        k(   32) = (   0.0000000   0.3333333  -0.3333333), wk =   0.0277778
        k(   33) = (  -0.1666667   0.5000000  -0.1666667), wk =   0.0555556
        k(   34) = (  -0.1666667   0.5000000  -0.3333333), wk =   0.0555556

     Dense  grid:    60583 G-vectors     FFT dimensions: (  48,  48,  72)

     Smooth grid:    32877 G-vectors     FFT dimensions: (  40,  40,  54)

     Dynamical RAM for                 wfc:       1.63 MB

     Dynamical RAM for     wfc (w. buffer):      57.21 MB

     Dynamical RAM for           str. fact:       0.46 MB

     Dynamical RAM for           local pot:       0.00 MB

     Dynamical RAM for          nlocal pot:       3.21 MB

     Dynamical RAM for                qrad:       3.64 MB

     Dynamical RAM for          rho,v,vnew:      13.14 MB

     Dynamical RAM for               rhoin:       4.38 MB

     Dynamical RAM for            rho*nmix:      29.58 MB

     Dynamical RAM for           G-vectors:       1.86 MB

     Dynamical RAM for          h,s,v(r/c):       0.12 MB

     Dynamical RAM for          <psi|beta>:       0.08 MB

     Dynamical RAM for                 psi:       3.27 MB

     Dynamical RAM for                hpsi:       3.27 MB

     Dynamical RAM for                spsi:       3.27 MB

     Dynamical RAM for      wfcinit/wfcrot:       2.47 MB

     Dynamical RAM for           addusdens:     283.34 MB

     Dynamical RAM for         addusstress:     290.27 MB

     Estimated static dynamical RAM per process >      89.89 MB

     Estimated max dynamical RAM per process >     409.74 MB

     Estimated total dynamical RAM >     819.48 MB

     Initial potential from superposition of free atoms

     starting charge      17.9993, renormalised to      18.0000
     Starting wfcs are   24 randomized atomic wfcs +    2 random wfcs

     total cpu time spent up to now is        2.5 secs

     per-process dynamical memory:   106.4 Mb

     Self-consistent Calculation

     iteration #  1     ecut=    50.00 Ry     beta= 0.40
     Davidson diagonalization with overlap

---- Real-time Memory Report at c_bands before calling an iterative solver
           354 MiB given to the printing process from OS
           105 MiB allocation reported by mallinfo(arena+hblkhd)
          2651 MiB available memory on the node where the printing process lives
------------------
     c_bands:  2 eigenvalues not converged
     c_bands:  1 eigenvalues not converged
     c_bands:  1 eigenvalues not converged
     c_bands:  2 eigenvalues not converged
     c_bands:  1 eigenvalues not converged
     c_bands:  1 eigenvalues not converged
     c_bands:  1 eigenvalues not converged
     c_bands:  2 eigenvalues not converged
     c_bands:  2 eigenvalues not converged
     c_bands:  2 eigenvalues not converged
     c_bands:  2 eigenvalues not converged
     c_bands:  2 eigenvalues not converged
     c_bands:  2 eigenvalues not converged
     c_bands:  2 eigenvalues not converged
     c_bands:  2 eigenvalues not converged
     c_bands:  2 eigenvalues not converged
     ethr =  1.00E-05,  avg # of iterations = 18.5

     total cpu time spent up to now is       18.8 secs

     total energy              =     -85.64395576 Ry
     estimated scf accuracy    <       0.01526205 Ry

     iteration #  2     ecut=    50.00 Ry     beta= 0.40
     Davidson diagonalization with overlap

---- Real-time Memory Report at c_bands before calling an iterative solver
           436 MiB given to the printing process from OS
           126 MiB allocation reported by mallinfo(arena+hblkhd)
          2598 MiB available memory on the node where the printing process lives
------------------
     ethr =  8.48E-05,  avg # of iterations =  1.1

     total cpu time spent up to now is       23.9 secs

     total energy              =     -85.64375539 Ry
     estimated scf accuracy    <       0.00448936 Ry

     iteration #  3     ecut=    50.00 Ry     beta= 0.40
     Davidson diagonalization with overlap

---- Real-time Memory Report at c_bands before calling an iterative solver
           438 MiB given to the printing process from OS
           128 MiB allocation reported by mallinfo(arena+hblkhd)
          2600 MiB available memory on the node where the printing process lives
------------------
     ethr =  2.49E-05,  avg # of iterations =  1.0

     total cpu time spent up to now is       28.9 secs

     total energy              =     -85.64399803 Ry
     estimated scf accuracy    <       0.00018580 Ry

     iteration #  4     ecut=    50.00 Ry     beta= 0.40
     Davidson diagonalization with overlap

---- Real-time Memory Report at c_bands before calling an iterative solver
           440 MiB given to the printing process from OS
           130 MiB allocation reported by mallinfo(arena+hblkhd)
          2591 MiB available memory on the node where the printing process lives
------------------
     ethr =  1.03E-06,  avg # of iterations =  5.2

     total cpu time spent up to now is       35.6 secs

     total energy              =     -85.64406273 Ry
     estimated scf accuracy    <       0.00000671 Ry

     iteration #  5     ecut=    50.00 Ry     beta= 0.40
     Davidson diagonalization with overlap

---- Real-time Memory Report at c_bands before calling an iterative solver
           442 MiB given to the printing process from OS
           132 MiB allocation reported by mallinfo(arena+hblkhd)
          2587 MiB available memory on the node where the printing process lives
------------------
     ethr =  3.73E-08,  avg # of iterations =  4.1

     total cpu time spent up to now is       42.3 secs

     total energy              =     -85.64406626 Ry
     estimated scf accuracy    <       0.00000203 Ry

     iteration #  6     ecut=    50.00 Ry     beta= 0.40
     Davidson diagonalization with overlap

---- Real-time Memory Report at c_bands before calling an iterative solver
           444 MiB given to the printing process from OS
           134 MiB allocation reported by mallinfo(arena+hblkhd)
          2584 MiB available memory on the node where the printing process lives
------------------
     ethr =  1.13E-08,  avg # of iterations =  2.0

     total cpu time spent up to now is       48.0 secs

     total energy              =     -85.64406653 Ry
     estimated scf accuracy    <       0.00000012 Ry

     iteration #  7     ecut=    50.00 Ry     beta= 0.40
     Davidson diagonalization with overlap

---- Real-time Memory Report at c_bands before calling an iterative solver
           446 MiB given to the printing process from OS
           136 MiB allocation reported by mallinfo(arena+hblkhd)
          2576 MiB available memory on the node where the printing process lives
------------------
     ethr =  6.63E-10,  avg # of iterations =  2.6

     total cpu time spent up to now is       53.7 secs

     total energy              =     -85.64406656 Ry
     estimated scf accuracy    <       0.00000002 Ry

     iteration #  8     ecut=    50.00 Ry     beta= 0.40
     Davidson diagonalization with overlap

---- Real-time Memory Report at c_bands before calling an iterative solver
           448 MiB given to the printing process from OS
           138 MiB allocation reported by mallinfo(arena+hblkhd)
          2574 MiB available memory on the node where the printing process lives
------------------
     ethr =  9.99E-11,  avg # of iterations =  3.2

     total cpu time spent up to now is       59.7 secs

     End of self-consistent calculation

          k = 0.0000 0.0000 0.0000 (  4117 PWs)   bands (ev):

    -7.6710  -7.6710  -4.3583  -4.3583  -4.3570  -4.3570   2.7275   2.7275
     2.9197   2.9197   3.3537   3.3537   4.3079   4.3079   4.3582   4.3582
     5.2154   5.2154   6.6176   6.6176   7.2339   7.2339   7.7772   7.7772
    10.9378  10.9386

     occupation numbers 
     1.0000   1.0000   1.0000   1.0000   1.0000   1.0000   1.0000   1.0000
     1.0000   1.0000   1.0000   1.0000   1.0000   1.0000   1.0000   1.0000
     1.0000   1.0000   0.0000   0.0000   0.0000   0.0000   0.0000   0.0000
     0.0000   0.0000

          k = 0.0000 0.0000 0.1250 (  4147 PWs)   bands (ev):

    -7.5712  -7.5700  -5.2916  -5.2887  -3.3960  -3.3946   2.4988   2.5011
     2.9041   3.0767   3.1639   3.6107   4.2664   4.3724   4.4463   4.5059
     5.1308   5.2382   6.5003   6.5257   7.0063   7.0928   7.4974   7.5130
    10.6089  10.6463

     occupation numbers 
     1.0000   1.0000   1.0000   1.0000   1.0000   1.0000   1.0000   1.0000
     1.0000   1.0000   1.0000   1.0000   1.0000   1.0000   1.0000   1.0000
     1.0000   1.0000   0.0000   0.0000   0.0000   0.0000   0.0000   0.0000
     0.0000   0.0000

          k = 0.0000 0.0000 0.2500 (  4135 PWs)   bands (ev):

    -7.2725  -7.2703  -6.1138  -6.1105  -2.5731  -2.5696   2.0204   2.0622
     3.0534   3.1545   3.2194   3.6348   4.3835   4.5330   4.5402   4.7846
     4.9741   5.1923   6.3805   6.3930   6.6474   6.8225   6.9591   7.0339
    10.1703  10.1886

     occupation numbers 
     1.0000   1.0000   1.0000   1.0000   1.0000   1.0000   1.0000   1.0000
     1.0000   1.0000   1.0000   1.0000   1.0000   1.0000   1.0000   1.0000
     1.0000   1.0000   0.0020   0.0013   0.0000   0.0000   0.0000   0.0000
     0.0000   0.0000

          k = 0.0000 0.0000-0.3749 (  4142 PWs)   bands (ev):

    -6.7821  -6.7821  -6.7791  -6.7791  -2.2137  -2.2137   1.7956   1.7956
     3.1503   3.1503   3.4386   3.4386   4.5236   4.5236   4.7612   4.7612
     5.0425   5.0425   6.4193   6.4193   6.5276   6.5276   6.7527   6.7527
     9.9901   9.9901

     occupation numbers 
     1.0000   1.0000   1.0000   1.0000   1.0000   1.0000   1.0000   1.0000
     1.0000   1.0000   1.0000   1.0000   1.0000   1.0000   1.0000   1.0000
     1.0000   1.0000   0.0005   0.0005   0.0000   0.0000   0.0000   0.0000
     0.0000   0.0000

          k = 0.0000 0.1925 0.0000 (  4133 PWs)   bands (ev):

    -7.4912  -7.4909  -4.4227  -4.4170  -4.3064  -4.3023   1.7314   1.8269
     2.2925   2.4414   2.7923   3.0269   4.5286   4.6983   4.9064   4.9952
     5.1800   5.2940   6.7191   6.7987   6.9541   7.0381   7.5290   7.6284
    10.3755  10.4152

     occupation numbers 
     1.0000   1.0000   1.0000   1.0000   1.0000   1.0000   1.0000   1.0000
     1.0000   1.0000   1.0000   1.0000   1.0000   1.0000   1.0000   1.0000
     1.0000   1.0000   0.0000   0.0000   0.0000   0.0000   0.0000   0.0000
     0.0000   0.0000

          k = 0.0000 0.1925 0.1250 (  4142 PWs)   bands (ev):

    -7.3927  -7.3913  -5.2323  -5.2291  -3.4948  -3.4921   1.8270   1.9020
     1.9886   2.1192   2.8899   3.0766   4.6341   4.7649   4.9451   5.1397
     5.3275   5.4222   6.5668   6.5937   6.7508   6.8890   7.3933   7.4545
     9.9751   9.9836

     occupation numbers 
     1.0000   1.0000   1.0000   1.0000   1.0000   1.0000   1.0000   1.0000
     1.0000   1.0000   1.0000   1.0000   1.0000   1.0000   1.0000   1.0000
     1.0000   1.0000   0.0000   0.0000   0.0000   0.0000   0.0000   0.0000
     0.0000   0.0000

          k = 0.0000 0.1925 0.2500 (  4139 PWs)   bands (ev):

    -7.1014  -7.0987  -5.9999  -5.9960  -2.8353  -2.8310   1.6774   1.7681
     2.1697   2.3406   2.9914   3.1717   4.4307   4.5058   4.6414   4.7488
     4.9133   5.0162   6.6230   6.7317   6.9554   7.1076   7.6608   7.6743
    10.0008  10.0272

     occupation numbers 
     1.0000   1.0000   1.0000   1.0000   1.0000   1.0000   1.0000   1.0000
     1.0000   1.0000   1.0000   1.0000   1.0000   1.0000   1.0000   1.0000
     1.0000   1.0000   0.0000   0.0000   0.0000   0.0000   0.0000   0.0000
     0.0000   0.0000

          k = 0.0000 0.1925-0.3749 (  4124 PWs)   bands (ev):

    -6.6489  -6.6472  -6.6104  -6.6089  -2.5937  -2.5930   1.6433   1.7227
     2.6264   2.8666   2.9431   3.1160   3.9009   4.1325   4.2384   4.3919
     4.5961   4.7938   6.7554   6.8959   7.3312   7.4632   7.8646   7.8711
    10.4156  10.4374

     occupation numbers 
     1.0000   1.0000   1.0000   1.0000   1.0000   1.0000   1.0000   1.0000
     1.0000   1.0000   1.0000   1.0000   1.0000   1.0000   1.0000   1.0000
     1.0000   1.0000   0.0000   0.0000   0.0000   0.0000   0.0000   0.0000
     0.0000   0.0000

          k = 0.0000 0.3849 0.0000 (  4110 PWs)   bands (ev):

    -7.0251  -7.0245  -4.7276  -4.7222  -4.1867  -4.1828   1.0278   1.0838
     1.6055   1.7659   2.3153   2.5285   3.4929   3.5677   4.8101   4.9593
     5.0438   5.1902   6.8314   6.9384   7.0687   7.1070   8.7378   8.7550
     9.3616   9.3904

     occupation numbers 
     1.0000   1.0000   1.0000   1.0000   1.0000   1.0000   1.0000   1.0000
     1.0000   1.0000   1.0000   1.0000   1.0000   1.0000   1.0000   1.0000
     1.0000   1.0000   0.0000   0.0000   0.0000   0.0000   0.0000   0.0000
     0.0000   0.0000

          k = 0.0000 0.3849 0.1250 (  4112 PWs)   bands (ev):

    -6.9292  -6.9267  -5.2032  -5.1989  -3.7526  -3.7464   0.8765   0.9045
     1.3595   1.4570   2.4344   2.5714   4.2084   4.4617   4.6884   4.9622
     4.9782   5.1748   6.7643   6.8284   7.2566   7.3566   7.8572   7.8847
     9.2943   9.3547

     occupation numbers 
     1.0000   1.0000   1.0000   1.0000   1.0000   1.0000   1.0000   1.0000
     1.0000   1.0000   1.0000   1.0000   1.0000   1.0000   1.0000   1.0000
     1.0000   1.0000   0.0000   0.0000   0.0000   0.0000   0.0000   0.0000
     0.0000   0.0000

          k = 0.0000 0.3849 0.2500 (  4115 PWs)   bands (ev):

    -6.6625  -6.6577  -5.7700  -5.7638  -3.4487  -3.4425   0.7124   0.7565
     1.5987   1.7152   2.5787   2.6930   3.9392   4.1003   4.3252   4.4255
     5.7343   5.7874   6.6261   6.6939   7.2782   7.4102   7.7717   8.1060
     9.7689   9.9052

     occupation numbers 
     1.0000   1.0000   1.0000   1.0000   1.0000   1.0000   1.0000   1.0000
     1.0000   1.0000   1.0000   1.0000   1.0000   1.0000   1.0000   1.0000
     0.9999   0.9995   0.0000   0.0000   0.0000   0.0000   0.0000   0.0000
     0.0000   0.0000

          k = 0.0000 0.3849-0.3749 (  4122 PWs)   bands (ev):

    -6.3495  -6.3476  -6.1642  -6.1622  -3.4158  -3.4143   0.8028   0.8443
     2.1058   2.2299   2.4718   2.5881   3.6893   3.7556   3.9783   4.0587
     4.9243   5.0234   7.1861   7.3848   7.8527   7.9593   8.2563   8.4663
    10.4320  10.5808

     occupation numbers 
     1.0000   1.0000   1.0000   1.0000   1.0000   1.0000   1.0000   1.0000
     1.0000   1.0000   1.0000   1.0000   1.0000   1.0000   1.0000   1.0000
     1.0000   1.0000   0.0000   0.0000   0.0000   0.0000   0.0000   0.0000
     0.0000   0.0000

          k = 0.0000-0.5774 0.0000 (  4094 PWs)   bands (ev):

    -6.6750  -6.6750  -5.0388  -5.0388  -4.1180  -4.1180   1.0025   1.0025
     1.4987   1.4987   2.3328   2.3328   2.5410   2.5410   4.7995   4.7995
     5.0831   5.0831   6.8843   6.8843   7.0044   7.0044   8.9852   8.9852
     9.6774   9.6774

     occupation numbers 
     1.0000   1.0000   1.0000   1.0000   1.0000   1.0000   1.0000   1.0000
     1.0000   1.0000   1.0000   1.0000   1.0000   1.0000   1.0000   1.0000
     1.0000   1.0000   0.0000   0.0000   0.0000   0.0000   0.0000   0.0000
     0.0000   0.0000

          k = 0.0000-0.5774 0.1250 (  4102 PWs)   bands (ev):

    -6.6011  -6.5974  -5.2001  -5.1958  -4.0657  -4.0578   0.9621   1.0014
     1.1664   1.2750   2.2700   2.4287   3.1627   3.3410   4.4344   4.6012
     4.7537   4.8363   6.8798   6.9198   7.4650   7.6812   9.1244   9.1442
     9.3329   9.4452

     occupation numbers 
     1.0000   1.0000   1.0000   1.0000   1.0000   1.0000   1.0000   1.0000
     1.0000   1.0000   1.0000   1.0000   1.0000   1.0000   1.0000   1.0000
     1.0000   1.0000   0.0000   0.0000   0.0000   0.0000   0.0000   0.0000
     0.0000   0.0000

          k = 0.0000-0.5774 0.2500 (  4098 PWs)   bands (ev):

    -6.3906  -6.3841  -5.5546  -5.5469  -3.9712  -3.9642   0.4491   0.4793
     1.6097   1.7175   2.3811   2.4955   3.5924   3.8688   4.0539   4.2444
     4.7269   4.9225   7.2315   7.3168   7.8346   7.9138   8.2323   8.5618
    10.0551  10.2702

     occupation numbers 
     1.0000   1.0000   1.0000   1.0000   1.0000   1.0000   1.0000   1.0000
     1.0000   1.0000   1.0000   1.0000   1.0000   1.0000   1.0000   1.0000
     1.0000   1.0000   0.0000   0.0000   0.0000   0.0000   0.0000   0.0000
     0.0000   0.0000

          k = 0.0000-0.5774-0.3749 (  4112 PWs)   bands (ev):

    -6.1760  -6.1760  -5.8244  -5.8244  -3.9252  -3.9252   0.2650   0.2650
     2.1377   2.1377   2.2677   2.2677   3.5523   3.5523   3.9098   3.9098
     5.7502   5.7502   6.7066   6.7066   7.7599   7.7599   8.6217   8.6217
    10.5271  10.5271

     occupation numbers 
     1.0000   1.0000   1.0000   1.0000   1.0000   1.0000   1.0000   1.0000
     1.0000   1.0000   1.0000   1.0000   1.0000   1.0000   1.0000   1.0000
     0.9999   0.9999   0.0000   0.0000   0.0000   0.0000   0.0000   0.0000
     0.0000   0.0000

          k = 0.1667 0.2887 0.0000 (  4139 PWs)   bands (ev):

    -7.1639  -7.1632  -4.5536  -4.5435  -4.2930  -4.2845   1.2202   1.3341
     1.4865   1.5950   2.8464   3.0094   4.0133   4.1682   4.2963   4.3659
     4.7654   4.8139   7.4696   7.5063   7.5587   7.5932   7.9227   7.9409
    10.2478  10.2548

     occupation numbers 
     1.0000   1.0000   1.0000   1.0000   1.0000   1.0000   1.0000   1.0000
     1.0000   1.0000   1.0000   1.0000   1.0000   1.0000   1.0000   1.0000
     1.0000   1.0000   0.0000   0.0000   0.0000   0.0000   0.0000   0.0000
     0.0000   0.0000

          k = 0.1667 0.2887 0.1250 (  4115 PWs)   bands (ev):

    -7.0730  -7.0709  -5.1267  -5.1227  -3.7842  -3.7790   1.2299   1.2944
     1.6478   1.7057   2.7557   2.8916   3.5782   3.6727   4.3484   4.4659
     5.3879   5.4544   6.8319   6.9021   7.6150   7.6563   8.2255   8.2571
    10.2207  10.2509

     occupation numbers 
     1.0000   1.0000   1.0000   1.0000   1.0000   1.0000   1.0000   1.0000
     1.0000   1.0000   1.0000   1.0000   1.0000   1.0000   1.0000   1.0000
     1.0000   1.0000   0.0000   0.0000   0.0000   0.0000   0.0000   0.0000
     0.0000   0.0000

          k = 0.1667 0.2887 0.2500 (  4123 PWs)   bands (ev):

    -6.8038  -6.8001  -5.7897  -5.7846  -3.3432  -3.3375   1.2397   1.3328
     1.7426   1.8771   2.5920   2.7076   3.2733   3.4540   4.8034   4.9311
     5.1359   5.2558   6.7729   6.8273   7.6127   7.6234   8.4108   8.4644
    10.4024  10.4230

     occupation numbers 
     1.0000   1.0000   1.0000   1.0000   1.0000   1.0000   1.0000   1.0000
     1.0000   1.0000   1.0000   1.0000   1.0000   1.0000   1.0000   1.0000
     1.0000   1.0000   0.0000   0.0000   0.0000   0.0000   0.0000   0.0000
     0.0000   0.0000

          k = 0.1667 0.2887-0.3749 (  4136 PWs)   bands (ev):

    -6.4133  -6.4103  -6.3165  -6.3135  -3.1767  -3.1752   1.2165   1.3131
     2.0392   2.0525   2.1658   2.2672   3.8413   4.0018   4.4029   4.4363
     5.1156   5.2007   6.6931   6.7724   8.0694   8.0856   8.2741   8.2947
    10.5999  10.6398

     occupation numbers 
     1.0000   1.0000   1.0000   1.0000   1.0000   1.0000   1.0000   1.0000
     1.0000   1.0000   1.0000   1.0000   1.0000   1.0000   1.0000   1.0000
     1.0000   1.0000   0.0000   0.0000   0.0000   0.0000   0.0000   0.0000
     0.0000   0.0000

          k = 0.1667 0.4811 0.0000 (  4120 PWs)   bands (ev):

    -6.7012  -6.7005  -4.8572  -4.8511  -4.3081  -4.3027   1.0742   1.1464
     1.3472   1.4555   2.4190   2.6175   2.9138   3.0361   3.9443   4.0326
     4.1863   4.2266   7.7127   7.7493   8.0677   8.0811   9.1846   9.1944
     9.8448   9.8613

     occupation numbers 
     1.0000   1.0000   1.0000   1.0000   1.0000   1.0000   1.0000   1.0000
     1.0000   1.0000   1.0000   1.0000   1.0000   1.0000   1.0000   1.0000
     1.0000   1.0000   0.0000   0.0000   0.0000   0.0000   0.0000   0.0000
     0.0000   0.0000

          k = 0.1667 0.4811 0.1250 (  4115 PWs)   bands (ev):

    -6.6181  -6.6144  -5.1576  -5.1525  -4.0800  -4.0714   0.8104   0.8433
     1.3062   1.4070   2.3454   2.4764   3.1433   3.3113   4.0101   4.1420
     4.8351   4.9554   7.2628   7.3276   8.2920   8.3245   8.4413   8.5113
     9.9859  10.0401

     occupation numbers 
     1.0000   1.0000   1.0000   1.0000   1.0000   1.0000   1.0000   1.0000
     1.0000   1.0000   1.0000   1.0000   1.0000   1.0000   1.0000   1.0000
     1.0000   1.0000   0.0000   0.0000   0.0000   0.0000   0.0000   0.0000
     0.0000   0.0000

          k = 0.1667 0.4811 0.2500 (  4112 PWs)   bands (ev):

    -6.3860  -6.3792  -5.5967  -5.5886  -3.8821  -3.8745   0.5461   0.5886
     1.2884   1.3639   2.0803   2.1541   3.3893   3.5167   4.9442   5.1515
     5.5067   5.7628   6.6298   6.6931   7.3940   7.4645   8.4730   8.5820
    10.3053  10.3822

     occupation numbers 
     1.0000   1.0000   1.0000   1.0000   1.0000   1.0000   1.0000   1.0000
     1.0000   1.0000   1.0000   1.0000   1.0000   1.0000   1.0000   1.0000
     1.0000   0.9998   0.0000   0.0000   0.0000   0.0000   0.0000   0.0000
     0.0000   0.0000

          k = 0.1667 0.4811-0.3749 (  4108 PWs)   bands (ev):

    -6.1276  -6.1253  -5.9130  -5.9100  -3.8376  -3.8360   0.5329   0.5605
     1.4702   1.4997   1.6129   1.6955   4.2273   4.3305   4.7213   4.7617
     5.5259   5.6010   6.8288   6.9310   7.5115   7.5751   8.1475   8.1946
    10.7824  10.8169

     occupation numbers 
     1.0000   1.0000   1.0000   1.0000   1.0000   1.0000   1.0000   1.0000
     1.0000   1.0000   1.0000   1.0000   1.0000   1.0000   1.0000   1.0000
     1.0000   1.0000   0.0000   0.0000   0.0000   0.0000   0.0000   0.0000
     0.0000   0.0000

          k = 0.3333 0.5774 0.0000 (  4140 PWs)   bands (ev):

    -6.5068  -6.5068  -4.6815  -4.6784  -4.6784  -4.6670   1.2176   1.4044
     1.4044   1.4188   2.7385   2.7385   2.8363   3.0364   3.0364   3.0659
     3.4219   3.4219   8.6978   8.7386   8.9041   8.9041   9.1505   9.1505
    10.8526  10.8526

     occupation numbers 
     1.0000   1.0000   1.0000   1.0000   1.0000   1.0000   1.0000   1.0000
     1.0000   1.0000   1.0000   1.0000   1.0000   1.0000   1.0000   1.0000
     1.0000   1.0000   0.0000   0.0000   0.0000   0.0000   0.0000   0.0000
     0.0000   0.0000

          k = 0.3333 0.5774 0.1250 (  4131 PWs)   bands (ev):

    -6.4350  -6.4304  -5.0703  -5.0667  -4.3501  -4.3401   0.9240   0.9383
     1.3000   1.4656   2.1096   2.2176   2.8280   3.0124   3.8294   3.8702
     4.2111   4.4047   8.1624   8.3177   8.6336   8.7524   8.7616   8.7926
    11.0453  11.0936

     occupation numbers 
     1.0000   1.0000   1.0000   1.0000   1.0000   1.0000   1.0000   1.0000
     1.0000   1.0000   1.0000   1.0000   1.0000   1.0000   1.0000   1.0000
     1.0000   1.0000   0.0000   0.0000   0.0000   0.0000   0.0000   0.0000
     0.0000   0.0000

          k = 0.3333 0.5774 0.2500 (  4131 PWs)   bands (ev):

    -6.2228  -6.2144  -5.4933  -5.4842  -4.1142  -4.1055   0.7388   0.7924
     0.9027   0.9617   1.3809   1.4923   3.8651   3.9985   4.9129   5.0651
     5.2588   5.5496   7.0414   7.1558   7.8626   7.9536   8.0682   8.0989
    11.6790  11.6923

     occupation numbers 
     1.0000   1.0000   1.0000   1.0000   1.0000   1.0000   1.0000   1.0000
     1.0000   1.0000   1.0000   1.0000   1.0000   1.0000   1.0000   1.0000
     1.0000   1.0000   0.0000   0.0000   0.0000   0.0000   0.0000   0.0000
     0.0000   0.0000

          k = 0.3333 0.5774-0.3749 (  4122 PWs)   bands (ev):

    -5.8949  -5.8949  -5.8882  -5.8810  -4.0215  -4.0215   0.7264   0.7264
     0.8771   0.9303   1.0034   1.0034   4.7943   4.7943   5.7648   5.7648
     6.0130   6.1196   6.1196   6.1549   7.2771   7.3457   7.5060   7.5060
    11.8739  11.8739

     occupation numbers 
     1.0000   1.0000   1.0000   1.0000   1.0000   1.0000   1.0000   1.0000
     1.0000   1.0000   1.0000   1.0000   1.0000   1.0000   0.9998   0.9998
     0.8283   0.4362   0.4362   0.2989   0.0000   0.0000   0.0000   0.0000
     0.0000   0.0000

          k = 0.0000 0.1925-0.1250 (  4142 PWs)   bands (ev):

    -7.3953  -7.3939  -5.2046  -5.2015  -3.5515  -3.5487   1.7938   1.8807
     2.5161   2.7122   2.7904   3.1510   4.2335   4.2846   4.3770   4.5529
     4.8024   4.9896   6.9625   7.0576   7.3628   7.4868   7.7715   7.8667
    10.6662  10.7068

     occupation numbers 
     1.0000   1.0000   1.0000   1.0000   1.0000   1.0000   1.0000   1.0000
     1.0000   1.0000   1.0000   1.0000   1.0000   1.0000   1.0000   1.0000
     1.0000   1.0000   0.0000   0.0000   0.0000   0.0000   0.0000   0.0000
     0.0000   0.0000

          k = 0.0000 0.1925-0.2500 (  4139 PWs)   bands (ev):

    -7.1073  -7.1046  -5.9826  -5.9788  -2.8856  -2.8813   1.8006   1.8687
     2.6397   2.8013   3.0513   3.2963   3.7174   3.9397   4.1538   4.2407
     4.6222   4.7742   6.9874   7.0291   7.6270   7.7222   7.7834   7.8519
    10.6071  10.6263

     occupation numbers 
     1.0000   1.0000   1.0000   1.0000   1.0000   1.0000   1.0000   1.0000
     1.0000   1.0000   1.0000   1.0000   1.0000   1.0000   1.0000   1.0000
     1.0000   1.0000   0.0000   0.0000   0.0000   0.0000   0.0000   0.0000
     0.0000   0.0000

          k = 0.0000 0.3849-0.1250 (  4112 PWs)   bands (ev):

    -6.9468  -6.9444  -5.0421  -5.0383  -4.0054  -3.9994   1.3010   1.4139
     1.7969   1.9162   2.5263   2.7628   2.7803   3.0082   4.3366   4.5866
     4.7802   4.9419   6.9570   7.0522   7.6567   7.8860   9.1414   9.1543
     9.9425  10.0548

     occupation numbers 
     1.0000   1.0000   1.0000   1.0000   1.0000   1.0000   1.0000   1.0000
     1.0000   1.0000   1.0000   1.0000   1.0000   1.0000   1.0000   1.0000
     1.0000   1.0000   0.0000   0.0000   0.0000   0.0000   0.0000   0.0000
     0.0000   0.0000

          k = 0.0000 0.3849-0.2500 (  4115 PWs)   bands (ev):

    -6.7008  -6.6967  -5.6581  -5.6529  -3.6351  -3.6291   1.1790   1.2529
     1.9390   2.0986   2.5389   2.6836   3.2738   3.6354   3.8877   4.0547
     4.3859   4.6087   7.3638   7.4138   8.2051   8.3590   8.8268   8.8415
    10.5679  10.6787

     occupation numbers 
     1.0000   1.0000   1.0000   1.0000   1.0000   1.0000   1.0000   1.0000
     1.0000   1.0000   1.0000   1.0000   1.0000   1.0000   1.0000   1.0000
     1.0000   1.0000   0.0000   0.0000   0.0000   0.0000   0.0000   0.0000
     0.0000   0.0000

          k =-0.1667 0.4811-0.1250 (  4115 PWs)   bands (ev):

    -6.6292  -6.6256  -5.0715  -5.0667  -4.1929  -4.1841   1.0024   1.0543
     1.3980   1.4706   2.3733   2.5362   2.7887   3.1604   3.6157   3.8081
     5.0617   5.1253   7.1133   7.1734   8.1897   8.2397   9.2369   9.2608
    10.0978  10.1528

     occupation numbers 
     1.0000   1.0000   1.0000   1.0000   1.0000   1.0000   1.0000   1.0000
     1.0000   1.0000   1.0000   1.0000   1.0000   1.0000   1.0000   1.0000
     1.0000   1.0000   0.0000   0.0000   0.0000   0.0000   0.0000   0.0000
     0.0000   0.0000

          k =-0.1667 0.4811-0.2500 (  4112 PWs)   bands (ev):

    -6.4097  -6.4036  -5.5296  -5.5224  -3.9639  -3.9563   0.7953   0.8683
     1.1896   1.2566   2.0346   2.1095   3.4989   3.7090   4.4096   4.5497
     5.3117   5.4426   6.8895   6.9223   8.0516   8.1160   8.5324   8.5751
    10.5673  10.6120

     occupation numbers 
     1.0000   1.0000   1.0000   1.0000   1.0000   1.0000   1.0000   1.0000
     1.0000   1.0000   1.0000   1.0000   1.0000   1.0000   1.0000   1.0000
     1.0000   1.0000   0.0000   0.0000   0.0000   0.0000   0.0000   0.0000
     0.0000   0.0000

     the Fermi energy is     6.1041 ev

!    total energy              =     -85.64406656 Ry
     estimated scf accuracy    <          4.7E-09 Ry
     smearing contrib. (-TS)   =      -0.00009270 Ry
     internal energy E=F+TS    =     -85.64397387 Ry

     The total energy is F=E-TS. E is the sum of the following terms:
     one-electron contribution =      10.11798648 Ry
     hartree contribution      =       3.38029866 Ry
     xc contribution           =     -49.69621634 Ry
     ewald contribution        =     -49.44604266 Ry

     convergence has been achieved in   8 iterations


     Computing stress (Cartesian axis) and pressure

          total   stress  (Ry/bohr**3)                   (kbar)     P=       22.30
   0.00013195  -0.00000000   0.00000000           19.41       -0.00        0.00
  -0.00000000   0.00013195   0.00000000           -0.00       19.41        0.00
   0.00000000   0.00000000   0.00019082            0.00        0.00       28.07

     kinetic stress (kbar)   2332.99     -0.00      0.00
                               -0.00   2332.99      0.00
                                0.00      0.00   2205.11

     local   stress (kbar)    154.97     -0.00     -0.00
                               -0.00    154.97      0.00
                               -0.00      0.00   -580.55

     nonloc. stress (kbar)   2362.34      0.00      0.00
                                0.00   2362.34      0.00
                                0.00      0.00   2352.20

     hartree stress (kbar)    180.86      0.00      0.00
                                0.00    180.86     -0.00
                                0.00     -0.00    358.83

     exc-cor stress (kbar)   6978.46      0.00      0.00
                                0.00   6978.46     -0.00
                                0.00     -0.00   6980.88

     corecor stress (kbar)  -8245.68     -0.00     -0.00
                               -0.00  -8245.68      0.00
                               -0.00      0.00  -8237.39

     ewald   stress (kbar)  -3744.53      0.00      0.00
                                0.00  -3744.53     -0.00
                                0.00     -0.00  -3051.02

     hubbard stress (kbar)      0.00      0.00      0.00
                                0.00      0.00      0.00
                                0.00      0.00      0.00

     DFT-D   stress (kbar)      0.00      0.00      0.00
                                0.00      0.00      0.00
                                0.00      0.00      0.00

     XDM     stress (kbar)      0.00      0.00      0.00
                                0.00      0.00      0.00
                                0.00      0.00      0.00

     dft-nl  stress (kbar)      0.00      0.00      0.00
                                0.00      0.00      0.00
                                0.00      0.00      0.00

     TS-vdW  stress (kbar)      0.00      0.00      0.00
                                0.00      0.00      0.00
                                0.00      0.00      0.00

     MDB     stress (kbar)      0.00      0.00      0.00
                                0.00      0.00      0.00
                                0.00      0.00      0.00

     3D-RISM stress (kbar)      0.00      0.00      0.00
                                0.00      0.00      0.00
                                0.00      0.00      0.00


     Writing all to output data dir /home/user/workspace/qe_runs/strain_clamp_p0025/out/teclamp_p0025.save/ :
     XML data file, charge density, pseudopotentials, collected wavefunctions

     init_run     :      2.19s CPU      2.39s WALL (       1 calls)
     electrons    :     53.94s CPU     57.15s WALL (       1 calls)
     stress       :      4.37s CPU      4.68s WALL (       1 calls)

     Called by init_run:
     wfcinit      :      1.28s CPU      1.35s WALL (       1 calls)
     wfcinit:atom :      0.01s CPU      0.01s WALL (      34 calls)
     wfcinit:wfcr :      1.22s CPU      1.29s WALL (      34 calls)
     potinit      :      0.18s CPU      0.18s WALL (       1 calls)
     hinit0       :      0.46s CPU      0.46s WALL (       1 calls)

     Called by electrons:
     c_bands      :     43.79s CPU     45.07s WALL (       8 calls)
     sum_band     :      7.81s CPU      8.95s WALL (       8 calls)
     v_of_rho     :      0.23s CPU      0.23s WALL (       9 calls)
     v_h          :      0.01s CPU      0.01s WALL (       9 calls)
     v_xc         :      0.24s CPU      0.24s WALL (      10 calls)
     newd         :      2.22s CPU      3.10s WALL (       9 calls)
     mix_rho      :      0.10s CPU      0.12s WALL (       8 calls)

     Called by c_bands:
     init_us_2    :      0.56s CPU      0.57s WALL (     612 calls)
     cegterg      :     37.06s CPU     38.31s WALL (     272 calls)

     Called by sum_band:
     sum_band:wei :      0.01s CPU      0.01s WALL (       8 calls)
     sum_band:loo :      5.76s CPU      5.90s WALL (       8 calls)
     sum_band:buf :      0.06s CPU      0.06s WALL (     272 calls)
     sum_band:ini :      0.24s CPU      0.24s WALL (     272 calls)
     sum_band:cal :      0.54s CPU      0.56s WALL (     272 calls)
     sum_band:bec :      0.64s CPU      0.64s WALL (     272 calls)
     addusdens    :      1.97s CPU      2.96s WALL (       8 calls)
                                        0.00s GPU  (       8 calls)
     addusd:skk   :      0.00s CPU      0.00s WALL (       8 calls)
                                        0.00s GPU  (       8 calls)

     Called by *egterg:
     cdiaghg      :      1.13s CPU      1.14s WALL (    1559 calls)
     cegterg:over :      1.67s CPU      1.70s WALL (    1287 calls)
     cegterg:upda :      0.98s CPU      1.00s WALL (    1287 calls)
     cegterg:last :      1.89s CPU      1.91s WALL (     760 calls)
     h_psi        :     29.55s CPU     30.69s WALL (    1593 calls)
     s_psi        :      1.77s CPU      1.82s WALL (    1593 calls)
     g_psi        :      0.35s CPU      0.36s WALL (    1287 calls)

     Called by h_psi:
     h_psi:calbec :      2.08s CPU      2.15s WALL (    1593 calls)
     vloc_psi     :     25.50s CPU     26.51s WALL (    1593 calls)
                                        0.00s GPU  (    1593 calls)
     add_vuspsi   :      1.77s CPU      1.81s WALL (    1593 calls)

     General routines
     calbec       :      3.49s CPU      3.58s WALL (    2307 calls)
     fft          :      0.38s CPU      0.38s WALL (     228 calls)
     ffts         :      0.16s CPU      0.16s WALL (      68 calls)
     fftw         :     25.52s CPU     26.48s WALL (  111648 calls)
     interpolate  :      0.18s CPU      0.18s WALL (      36 calls)

     Parallel routines

     PWSCF        :   1m 0.67s CPU   1m 4.48s WALL


   This run was terminated on:   7:45:17  20Aug2026            

=------------------------------------------------------------------------------=
   JOB DONE.
=------------------------------------------------------------------------------=
