
     Program PWSCF v.7.5 starts on 20Aug2026 at  7:45:28 

     This program is part of the open-source Quantum ESPRESSO suite
     for quantum simulation of materials; please cite
         "P. Giannozzi et al., J. Phys.:Condens. Matter 21 395502 (2009);
         "P. Giannozzi et al., J. Phys.:Condens. Matter 29 465901 (2017);
         "P. Giannozzi et al., J. Chem. Phys. 152 154105 (2020);
          URL http://www.quantum-espresso.org", 
     in publications or presentations arising from this work. More details at
     http://www.quantum-espresso.org/quote

     Parallel version (MPI & OpenMP), running on       2 processor cores
     Number of MPI processes:                 2
     Threads/MPI process:                     1

     MPI processes distributed on     1 nodes
     2693 MiB available memory on the printing compute node when the environment starts

     Reading input from strain_clamp_p0050/scf.in

     Current dimensions of program PWSCF are:
     Max number of different atomic species (ntypx) = 10
     Max number of k-points (npk) =  40000
     Max angular momentum in pseudopotentials (lmaxx) =  4
     file Te.rel-pbe-n-rrkjus_psl.1.0.0.UPF: wavefunction(s)  5S renormalized
     Message from routine setup:
     using ibrav=0 with symmetry is DISCOURAGED, use correct ibrav instead

     R & G space division:  proc/nbgrp/npool/nimage =       2
     Subspace diagonalization in iterative solution of the eigenvalue problem:
     a serial algorithm will be used


     Parallelization info
     --------------------
     sticks:   dense  smooth     PW     G-vecs:    dense   smooth      PW
     Min         741     482    141                30370    16516    2589
     Max         742     485    142                30371    16517    2592
     Sum        1483     967    283                60741    33033    5181

     Using Slab Decomposition



     bravais-lattice index     =            0
     lattice parameter (alat)  =       8.4229  a.u.
     unit-cell volume          =     691.8241 (a.u.)^3
     number of atoms/cell      =            3
     number of atomic types    =            1
     number of electrons       =        18.00
     number of Kohn-Sham states=           26
     kinetic-energy cutoff     =      50.0000  Ry
     charge density cutoff     =     300.0000  Ry
     scf convergence threshold =      1.0E-08
     mixing beta               =       0.4000
     number of iterations used =            8  plain     mixing
     Exchange-correlation= PBE
                           (   1   4   3   4   0   0   0)
     Non magnetic calculation with spin-orbit


     celldm(1)=   8.422887  celldm(2)=   0.000000  celldm(3)=   0.000000
     celldm(4)=   0.000000  celldm(5)=   0.000000  celldm(6)=   0.000000

     crystal axes: (cart. coord. in units of alat)
               a(1) = (   1.000000   0.000000   0.000000 )  
               a(2) = (  -0.500000   0.866025   0.000000 )  
               a(3) = (   0.000000   0.000000   1.336848 )  

     reciprocal axes: (cart. coord. in units 2 pi/alat)
               b(1) = (  1.000000  0.577350 -0.000000 )  
               b(2) = (  0.000000  1.154701  0.000000 )  
               b(3) = (  0.000000 -0.000000  0.748028 )  


     PseudoPot. # 1 for Te read from file:
     /home/user/workspace/qe_runs/pseudo/Te.rel-pbe-n-rrkjus_psl.1.0.0.UPF
     MD5 check sum: 7fd30b6833abd190471e4dcc2367351b
     Pseudo is Ultrasoft + core correction, Zval =  6.0
     Generated using &quot;atomic&quot; code by A. Dal Corso  v.6.3
     Using radial grid of 1245 points, 10 beta functions with: 
                l(1) =   0
                l(2) =   0
                l(3) =   1
                l(4) =   1
                l(5) =   1
                l(6) =   1
                l(7) =   2
                l(8) =   2
                l(9) =   2
               l(10) =   2
     Q(r) pseudized with 0 coefficients 


     atomic species   valence    mass     pseudopotential
     Te                6.00   127.60000     Te( 1.00)

      6 Sym. Ops. (no inversion) found ( 4 have fractional translation)


                                    s                        frac. trans.

      isym =  1     identity                                     

 cryst.   s( 1) = (     1          0          0      )
                  (     0          1          0      )
                  (     0          0          1      )

 cart.    s( 1) = (  1.0000000  0.0000000  0.0000000 )
                  (  0.0000000  1.0000000  0.0000000 )
                  (  0.0000000  0.0000000  1.0000000 )


      isym =  2     180 deg rotation - cart. axis [1,0,0]        

 cryst.   s( 2) = (     1          0          0      )    f =(  0.0000000 )
                  (    -1         -1          0      )       (  0.0000000 )
                  (     0          0         -1      )       (  0.3333334 )

 cart.    s( 2) = (  1.0000000  0.0000000  0.0000000 )    f =(  0.0000000 )
                  (  0.0000000 -1.0000000  0.0000000 )       (  0.0000000 )
                  (  0.0000000  0.0000000 -1.0000000 )       (  0.4456162 )


      isym =  3     120 deg rotation - cryst. axis [0,0,1]       

 cryst.   s( 3) = (     0          1          0      )    f =(  0.0000000 )
                  (    -1         -1          0      )       (  0.0000000 )
                  (     0          0          1      )       ( -0.3333333 )

 cart.    s( 3) = ( -0.5000000 -0.8660255  0.0000000 )    f =(  0.0000000 )
                  (  0.8660253 -0.5000000  0.0000000 )       (  0.0000000 )
                  (  0.0000000  0.0000000  1.0000000 )       ( -0.4456160 )


      isym =  4     120 deg rotation - cryst. axis [0,0,-1]      

 cryst.   s( 4) = (    -1         -1          0      )    f =(  0.0000000 )
                  (     1          0          0      )       (  0.0000000 )
                  (     0          0          1      )       (  0.3333334 )

 cart.    s( 4) = ( -0.5000000  0.8660255  0.0000000 )    f =(  0.0000000 )
                  ( -0.8660253 -0.5000000  0.0000000 )       (  0.0000000 )
                  (  0.0000000  0.0000000  1.0000000 )       (  0.4456162 )


      isym =  5     180 deg rotation - cryst. axis [0,1,0]       

 cryst.   s( 5) = (    -1         -1          0      )    f =(  0.0000000 )
                  (     0          1          0      )       (  0.0000000 )
                  (     0          0         -1      )       ( -0.3333333 )

 cart.    s( 5) = ( -0.5000000 -0.8660255  0.0000000 )    f =(  0.0000000 )
                  ( -0.8660253  0.5000000  0.0000000 )       (  0.0000000 )
                  (  0.0000000  0.0000000 -1.0000000 )       ( -0.4456160 )


      isym =  6     180 deg rotation - cryst. axis [1,1,0]       

 cryst.   s( 6) = (     0          1          0      )
                  (     1          0          0      )
                  (     0          0         -1      )

 cart.    s( 6) = ( -0.5000000  0.8660255  0.0000000 )
                  (  0.8660253  0.5000000  0.0000000 )
                  (  0.0000000  0.0000000 -1.0000000 )


   Cartesian axes

     site n.     atom                  positions (alat units)
         1        Te     tau(   1) = (   0.2636000   0.0000000   0.4456160  )
         2        Te     tau(   2) = (  -0.1318000   0.2282843   0.8912322  )
         3        Te     tau(   3) = (  -0.1318000  -0.2282843   0.0000000  )

   Crystallographic axes

     site n.     atom                  positions (cryst. coord.)
         1        Te     tau(   1) = (  0.2636000  0.0000000  0.3333333  )
         2        Te     tau(   2) = (  0.0000000  0.2636000  0.6666667  )
         3        Te     tau(   3) = ( -0.2636000 -0.2636000  0.0000000  )

     number of k points=    34  Gaussian smearing, width (Ry)=  0.0100
                       cart. coord. in units 2pi/alat
        k(    1) = (   0.0000000   0.0000000   0.0000000), wk =   0.0046296
        k(    2) = (   0.0000000   0.0000000   0.1246713), wk =   0.0092593
        k(    3) = (   0.0000000   0.0000000   0.2493427), wk =   0.0092593
        k(    4) = (   0.0000000   0.0000000  -0.3740140), wk =   0.0046296
        k(    5) = (   0.0000000   0.1924501   0.0000000), wk =   0.0277778
        k(    6) = (   0.0000000   0.1924501   0.1246713), wk =   0.0277778
        k(    7) = (   0.0000000   0.1924501   0.2493427), wk =   0.0277778
        k(    8) = (   0.0000000   0.1924501  -0.3740140), wk =   0.0277778
        k(    9) = (   0.0000000   0.3849002   0.0000000), wk =   0.0277778
        k(   10) = (   0.0000000   0.3849002   0.1246713), wk =   0.0277778
        k(   11) = (   0.0000000   0.3849002   0.2493427), wk =   0.0277778
        k(   12) = (   0.0000000   0.3849002  -0.3740140), wk =   0.0277778
        k(   13) = (   0.0000000  -0.5773503   0.0000000), wk =   0.0138889
        k(   14) = (   0.0000000  -0.5773503   0.1246713), wk =   0.0277778
        k(   15) = (   0.0000000  -0.5773503   0.2493427), wk =   0.0277778
        k(   16) = (   0.0000000  -0.5773503  -0.3740140), wk =   0.0138889
        k(   17) = (   0.1666667   0.2886752   0.0000000), wk =   0.0277778
        k(   18) = (   0.1666667   0.2886752   0.1246713), wk =   0.0555556
        k(   19) = (   0.1666667   0.2886752   0.2493427), wk =   0.0555556
        k(   20) = (   0.1666667   0.2886752  -0.3740140), wk =   0.0277778
        k(   21) = (   0.1666667   0.4811253   0.0000000), wk =   0.0555556
        k(   22) = (   0.1666667   0.4811253   0.1246713), wk =   0.0555556
        k(   23) = (   0.1666667   0.4811253   0.2493427), wk =   0.0555556
        k(   24) = (   0.1666667   0.4811253  -0.3740140), wk =   0.0555556
        k(   25) = (   0.3333333   0.5773503   0.0000000), wk =   0.0092593
        k(   26) = (   0.3333333   0.5773503   0.1246713), wk =   0.0185185
        k(   27) = (   0.3333333   0.5773503   0.2493427), wk =   0.0185185
        k(   28) = (   0.3333333   0.5773503  -0.3740140), wk =   0.0092593
        k(   29) = (   0.0000000   0.1924501  -0.1246713), wk =   0.0277778
        k(   30) = (   0.0000000   0.1924501  -0.2493427), wk =   0.0277778
        k(   31) = (   0.0000000   0.3849002  -0.1246713), wk =   0.0277778
        k(   32) = (   0.0000000   0.3849002  -0.2493427), wk =   0.0277778
        k(   33) = (  -0.1666667   0.4811253  -0.1246713), wk =   0.0555556
        k(   34) = (  -0.1666667   0.4811253  -0.2493427), wk =   0.0555556

                       cryst. coord.
        k(    1) = (   0.0000000   0.0000000   0.0000000), wk =   0.0046296
        k(    2) = (   0.0000000   0.0000000   0.1666667), wk =   0.0092593
        k(    3) = (   0.0000000   0.0000000   0.3333333), wk =   0.0092593
        k(    4) = (   0.0000000   0.0000000  -0.5000000), wk =   0.0046296
        k(    5) = (   0.0000000   0.1666667   0.0000000), wk =   0.0277778
        k(    6) = (   0.0000000   0.1666667   0.1666667), wk =   0.0277778
        k(    7) = (   0.0000000   0.1666667   0.3333333), wk =   0.0277778
        k(    8) = (   0.0000000   0.1666667  -0.5000000), wk =   0.0277778
        k(    9) = (   0.0000000   0.3333333   0.0000000), wk =   0.0277778
        k(   10) = (   0.0000000   0.3333333   0.1666667), wk =   0.0277778
        k(   11) = (   0.0000000   0.3333333   0.3333333), wk =   0.0277778
        k(   12) = (   0.0000000   0.3333333  -0.5000000), wk =   0.0277778
        k(   13) = (   0.0000000  -0.5000000   0.0000000), wk =   0.0138889
        k(   14) = (   0.0000000  -0.5000000   0.1666667), wk =   0.0277778
        k(   15) = (   0.0000000  -0.5000000   0.3333333), wk =   0.0277778
        k(   16) = (   0.0000000  -0.5000000  -0.5000000), wk =   0.0138889
        k(   17) = (   0.1666667   0.1666667   0.0000000), wk =   0.0277778
        k(   18) = (   0.1666667   0.1666667   0.1666667), wk =   0.0555556
        k(   19) = (   0.1666667   0.1666667   0.3333333), wk =   0.0555556
        k(   20) = (   0.1666667   0.1666667  -0.5000000), wk =   0.0277778
        k(   21) = (   0.1666667   0.3333333   0.0000000), wk =   0.0555556
        k(   22) = (   0.1666667   0.3333333   0.1666667), wk =   0.0555556
        k(   23) = (   0.1666667   0.3333333   0.3333333), wk =   0.0555556
        k(   24) = (   0.1666667   0.3333333  -0.5000000), wk =   0.0555556
        k(   25) = (   0.3333333   0.3333333   0.0000000), wk =   0.0092593
        k(   26) = (   0.3333333   0.3333333   0.1666667), wk =   0.0185185
        k(   27) = (   0.3333333   0.3333333   0.3333333), wk =   0.0185185
        k(   28) = (   0.3333333   0.3333333  -0.5000000), wk =   0.0092593
        k(   29) = (   0.0000000   0.1666667  -0.1666667), wk =   0.0277778
        k(   30) = (   0.0000000   0.1666667  -0.3333333), wk =   0.0277778
        k(   31) = (   0.0000000   0.3333333  -0.1666667), wk =   0.0277778
        k(   32) = (   0.0000000   0.3333333  -0.3333333), wk =   0.0277778
        k(   33) = (  -0.1666667   0.5000000  -0.1666667), wk =   0.0555556
        k(   34) = (  -0.1666667   0.5000000  -0.3333333), wk =   0.0555556

     Dense  grid:    60741 G-vectors     FFT dimensions: (  48,  48,  72)

     Smooth grid:    33033 G-vectors     FFT dimensions: (  40,  40,  54)

     Dynamical RAM for                 wfc:       1.64 MB

     Dynamical RAM for     wfc (w. buffer):      57.35 MB

     Dynamical RAM for           str. fact:       0.46 MB

     Dynamical RAM for           local pot:       0.00 MB

     Dynamical RAM for          nlocal pot:       3.21 MB

     Dynamical RAM for                qrad:       3.64 MB

     Dynamical RAM for          rho,v,vnew:      13.15 MB

     Dynamical RAM for               rhoin:       4.38 MB

     Dynamical RAM for            rho*nmix:      29.66 MB

     Dynamical RAM for           G-vectors:       1.86 MB

     Dynamical RAM for          h,s,v(r/c):       0.12 MB

     Dynamical RAM for          <psi|beta>:       0.08 MB

     Dynamical RAM for                 psi:       3.28 MB

     Dynamical RAM for                hpsi:       3.28 MB

     Dynamical RAM for                spsi:       3.28 MB

     Dynamical RAM for      wfcinit/wfcrot:       2.47 MB

     Dynamical RAM for           addusdens:     284.08 MB

     Dynamical RAM for         addusstress:     291.03 MB

     Estimated static dynamical RAM per process >      90.06 MB

     Estimated max dynamical RAM per process >     410.75 MB

     Estimated total dynamical RAM >     821.50 MB

     Initial potential from superposition of free atoms

     starting charge      17.9993, renormalised to      18.0000
     Starting wfcs are   24 randomized atomic wfcs +    2 random wfcs

     total cpu time spent up to now is        2.5 secs

     per-process dynamical memory:   107.2 Mb

     Self-consistent Calculation

     iteration #  1     ecut=    50.00 Ry     beta= 0.40
     Davidson diagonalization with overlap

---- Real-time Memory Report at c_bands before calling an iterative solver
           354 MiB given to the printing process from OS
           107 MiB allocation reported by mallinfo(arena+hblkhd)
          2502 MiB available memory on the node where the printing process lives
------------------
     c_bands:  2 eigenvalues not converged
     c_bands:  1 eigenvalues not converged
     c_bands:  1 eigenvalues not converged
     c_bands:  2 eigenvalues not converged
     c_bands:  2 eigenvalues not converged
     c_bands:  2 eigenvalues not converged
     c_bands:  2 eigenvalues not converged
     c_bands:  2 eigenvalues not converged
     c_bands:  2 eigenvalues not converged
     c_bands:  2 eigenvalues not converged
     c_bands:  2 eigenvalues not converged
     c_bands:  2 eigenvalues not converged
     c_bands:  2 eigenvalues not converged
     ethr =  1.00E-05,  avg # of iterations = 18.6

     total cpu time spent up to now is       18.5 secs

     total energy              =     -85.64426852 Ry
     estimated scf accuracy    <       0.01526398 Ry

     iteration #  2     ecut=    50.00 Ry     beta= 0.40
     Davidson diagonalization with overlap

---- Real-time Memory Report at c_bands before calling an iterative solver
           437 MiB given to the printing process from OS
           127 MiB allocation reported by mallinfo(arena+hblkhd)
          2449 MiB available memory on the node where the printing process lives
------------------
     ethr =  8.48E-05,  avg # of iterations =  1.2

     total cpu time spent up to now is       23.5 secs

     total energy              =     -85.64406555 Ry
     estimated scf accuracy    <       0.00449024 Ry

     iteration #  3     ecut=    50.00 Ry     beta= 0.40
     Davidson diagonalization with overlap

---- Real-time Memory Report at c_bands before calling an iterative solver
           439 MiB given to the printing process from OS
           129 MiB allocation reported by mallinfo(arena+hblkhd)
          2452 MiB available memory on the node where the printing process lives
------------------
     ethr =  2.49E-05,  avg # of iterations =  1.0

     total cpu time spent up to now is       28.5 secs

     total energy              =     -85.64431139 Ry
     estimated scf accuracy    <       0.00018538 Ry

     iteration #  4     ecut=    50.00 Ry     beta= 0.40
     Davidson diagonalization with overlap

---- Real-time Memory Report at c_bands before calling an iterative solver
           441 MiB given to the printing process from OS
           131 MiB allocation reported by mallinfo(arena+hblkhd)
          2446 MiB available memory on the node where the printing process lives
------------------
     ethr =  1.03E-06,  avg # of iterations =  5.2

     total cpu time spent up to now is       35.3 secs

     total energy              =     -85.64437637 Ry
     estimated scf accuracy    <       0.00000685 Ry

     iteration #  5     ecut=    50.00 Ry     beta= 0.40
     Davidson diagonalization with overlap

---- Real-time Memory Report at c_bands before calling an iterative solver
           443 MiB given to the printing process from OS
           133 MiB allocation reported by mallinfo(arena+hblkhd)
          2439 MiB available memory on the node where the printing process lives
------------------
     ethr =  3.81E-08,  avg # of iterations =  4.0

     total cpu time spent up to now is       42.0 secs

     total energy              =     -85.64437972 Ry
     estimated scf accuracy    <       0.00000201 Ry

     iteration #  6     ecut=    50.00 Ry     beta= 0.40
     Davidson diagonalization with overlap

---- Real-time Memory Report at c_bands before calling an iterative solver
           445 MiB given to the printing process from OS
           135 MiB allocation reported by mallinfo(arena+hblkhd)
          2429 MiB available memory on the node where the printing process lives
------------------
     ethr =  1.11E-08,  avg # of iterations =  2.1

     total cpu time spent up to now is       47.6 secs

     total energy              =     -85.64437999 Ry
     estimated scf accuracy    <       0.00000011 Ry

     iteration #  7     ecut=    50.00 Ry     beta= 0.40
     Davidson diagonalization with overlap

---- Real-time Memory Report at c_bands before calling an iterative solver
           447 MiB given to the printing process from OS
           137 MiB allocation reported by mallinfo(arena+hblkhd)
          2426 MiB available memory on the node where the printing process lives
------------------
     ethr =  5.89E-10,  avg # of iterations =  2.8

     total cpu time spent up to now is       53.6 secs

     total energy              =     -85.64438002 Ry
     estimated scf accuracy    <       0.00000002 Ry

     iteration #  8     ecut=    50.00 Ry     beta= 0.40
     Davidson diagonalization with overlap

---- Real-time Memory Report at c_bands before calling an iterative solver
           449 MiB given to the printing process from OS
           139 MiB allocation reported by mallinfo(arena+hblkhd)
          2428 MiB available memory on the node where the printing process lives
------------------
     ethr =  9.53E-11,  avg # of iterations =  3.4

     total cpu time spent up to now is       60.0 secs

     End of self-consistent calculation

          k = 0.0000 0.0000 0.0000 (  4117 PWs)   bands (ev):

    -7.6809  -7.6809  -4.3871  -4.3871  -4.3858  -4.3858   2.7142   2.7142
     2.8989   2.8989   3.3333   3.3333   4.2877   4.2877   4.3409   4.3409
     5.1925   5.1925   6.5808   6.5808   7.1957   7.1957   7.7505   7.7505
    10.9081  10.9089

     occupation numbers 
     1.0000   1.0000   1.0000   1.0000   1.0000   1.0000   1.0000   1.0000
     1.0000   1.0000   1.0000   1.0000   1.0000   1.0000   1.0000   1.0000
     1.0000   1.0000   0.0000   0.0000   0.0000   0.0000   0.0000   0.0000
     0.0000   0.0000

          k = 0.0000 0.0000 0.1247 (  4147 PWs)   bands (ev):

    -7.5816  -7.5804  -5.3151  -5.3123  -3.4304  -3.4290   2.4743   2.4799
     2.8922   3.0598   3.1460   3.5922   4.2450   4.3554   4.4271   4.4868
     5.1081   5.2159   6.4670   6.4913   6.9712   7.0584   7.4723   7.4877
    10.5774  10.6145

     occupation numbers 
     1.0000   1.0000   1.0000   1.0000   1.0000   1.0000   1.0000   1.0000
     1.0000   1.0000   1.0000   1.0000   1.0000   1.0000   1.0000   1.0000
     1.0000   1.0000   0.0000   0.0000   0.0000   0.0000   0.0000   0.0000
     0.0000   0.0000

          k = 0.0000 0.0000 0.2493 (  4148 PWs)   bands (ev):

    -7.2846  -7.2824  -6.1326  -6.1293  -2.6126  -2.6093   1.9936   2.0352
     3.0391   3.1416   3.2030   3.6183   4.3605   4.5153   4.5181   4.7662
     4.9524   5.1716   6.3528   6.3627   6.6172   6.7933   6.9358   7.0099
    10.1401  10.1585

     occupation numbers 
     1.0000   1.0000   1.0000   1.0000   1.0000   1.0000   1.0000   1.0000
     1.0000   1.0000   1.0000   1.0000   1.0000   1.0000   1.0000   1.0000
     1.0000   1.0000   0.0012   0.0009   0.0000   0.0000   0.0000   0.0000
     0.0000   0.0000

          k = 0.0000 0.0000-0.3740 (  4190 PWs)   bands (ev):

    -6.7971  -6.7971  -6.7941  -6.7941  -2.2559  -2.2559   1.7683   1.7683
     3.1351   3.1351   3.4239   3.4239   4.4998   4.4998   4.7417   4.7417
     5.0236   5.0236   6.3908   6.3908   6.5036   6.5036   6.7273   6.7273
     9.9604   9.9604

     occupation numbers 
     1.0000   1.0000   1.0000   1.0000   1.0000   1.0000   1.0000   1.0000
     1.0000   1.0000   1.0000   1.0000   1.0000   1.0000   1.0000   1.0000
     1.0000   1.0000   0.0003   0.0003   0.0000   0.0000   0.0000   0.0000
     0.0000   0.0000

          k = 0.0000 0.1925 0.0000 (  4141 PWs)   bands (ev):

    -7.5013  -7.5010  -4.4502  -4.4447  -4.3351  -4.3310   1.7168   1.8118
     2.2730   2.4214   2.7778   3.0113   4.5055   4.6741   4.8813   4.9704
     5.1550   5.2688   6.6839   6.7616   6.9175   6.9999   7.5014   7.5999
    10.3511  10.3903

     occupation numbers 
     1.0000   1.0000   1.0000   1.0000   1.0000   1.0000   1.0000   1.0000
     1.0000   1.0000   1.0000   1.0000   1.0000   1.0000   1.0000   1.0000
     1.0000   1.0000   0.0000   0.0000   0.0000   0.0000   0.0000   0.0000
     0.0000   0.0000

          k = 0.0000 0.1925 0.1247 (  4152 PWs)   bands (ev):

    -7.4034  -7.4020  -5.2556  -5.2524  -3.5277  -3.5251   1.8123   1.8869
     1.9684   2.0980   2.8757   3.0612   4.6116   4.7415   4.9228   5.1161
     5.2993   5.3944   6.5303   6.5566   6.7191   6.8571   7.3632   7.4250
     9.9541   9.9624

     occupation numbers 
     1.0000   1.0000   1.0000   1.0000   1.0000   1.0000   1.0000   1.0000
     1.0000   1.0000   1.0000   1.0000   1.0000   1.0000   1.0000   1.0000
     1.0000   1.0000   0.0000   0.0000   0.0000   0.0000   0.0000   0.0000
     0.0000   0.0000

          k = 0.0000 0.1925 0.2493 (  4152 PWs)   bands (ev):

    -7.1138  -7.1111  -6.0188  -6.0150  -2.8717  -2.8675   1.6566   1.7455
     2.1554   2.3229   2.9761   3.1558   4.4061   4.4831   4.6151   4.7254
     4.8880   4.9928   6.5924   6.7000   6.9279   7.0789   7.6272   7.6409
     9.9791  10.0053

     occupation numbers 
     1.0000   1.0000   1.0000   1.0000   1.0000   1.0000   1.0000   1.0000
     1.0000   1.0000   1.0000   1.0000   1.0000   1.0000   1.0000   1.0000
     1.0000   1.0000   0.0000   0.0000   0.0000   0.0000   0.0000   0.0000
     0.0000   0.0000

          k = 0.0000 0.1925-0.3740 (  4144 PWs)   bands (ev):

    -6.6641  -6.6624  -6.6256  -6.6242  -2.6312  -2.6305   1.6212   1.6991
     2.6102   2.8478   2.9263   3.1002   3.8753   4.1079   4.2166   4.3704
     4.5737   4.7716   6.7251   6.8634   7.3058   7.4347   7.8325   7.8396
    10.3890  10.4107

     occupation numbers 
     1.0000   1.0000   1.0000   1.0000   1.0000   1.0000   1.0000   1.0000
     1.0000   1.0000   1.0000   1.0000   1.0000   1.0000   1.0000   1.0000
     1.0000   1.0000   0.0000   0.0000   0.0000   0.0000   0.0000   0.0000
     0.0000   0.0000

          k = 0.0000 0.3849 0.0000 (  4130 PWs)   bands (ev):

    -7.0360  -7.0353  -4.7515  -4.7462  -4.2150  -4.2112   1.0110   1.0669
     1.5859   1.7447   2.3021   2.5139   3.4666   3.5412   4.7839   4.9328
     5.0168   5.1630   6.7944   6.9024   7.0351   7.0734   8.6924   8.7099
     9.3393   9.3677

     occupation numbers 
     1.0000   1.0000   1.0000   1.0000   1.0000   1.0000   1.0000   1.0000
     1.0000   1.0000   1.0000   1.0000   1.0000   1.0000   1.0000   1.0000
     1.0000   1.0000   0.0000   0.0000   0.0000   0.0000   0.0000   0.0000
     0.0000   0.0000

          k = 0.0000 0.3849 0.1247 (  4121 PWs)   bands (ev):

    -6.9406  -6.9381  -5.2254  -5.2211  -3.7825  -3.7764   0.8619   0.8896
     1.3392   1.4355   2.4216   2.5577   4.1811   4.4327   4.6639   4.9329
     4.9514   5.1445   6.7278   6.7951   7.2236   7.3205   7.8129   7.8408
     9.2727   9.3323

     occupation numbers 
     1.0000   1.0000   1.0000   1.0000   1.0000   1.0000   1.0000   1.0000
     1.0000   1.0000   1.0000   1.0000   1.0000   1.0000   1.0000   1.0000
     1.0000   1.0000   0.0000   0.0000   0.0000   0.0000   0.0000   0.0000
     0.0000   0.0000

          k = 0.0000 0.3849 0.2493 (  4136 PWs)   bands (ev):

    -6.6756  -6.6708  -5.7891  -5.7829  -3.4794  -3.4733   0.6990   0.7430
     1.5777   1.6930   2.5642   2.6783   3.9152   4.0760   4.3022   4.4017
     5.6953   5.7485   6.5852   6.6515   7.2434   7.3734   7.7404   8.0696
     9.7426   9.8777

     occupation numbers 
     1.0000   1.0000   1.0000   1.0000   1.0000   1.0000   1.0000   1.0000
     1.0000   1.0000   1.0000   1.0000   1.0000   1.0000   1.0000   1.0000
     0.9999   0.9994   0.0000   0.0000   0.0000   0.0000   0.0000   0.0000
     0.0000   0.0000

          k = 0.0000 0.3849-0.3740 (  4124 PWs)   bands (ev):

    -6.3652  -6.3633  -6.1801  -6.1781  -3.4461  -3.4446   0.7891   0.8304
     2.0846   2.2082   2.4542   2.5713   3.6672   3.7342   3.9533   4.0347
     4.8876   4.9885   7.1458   7.3422   7.8100   7.9160   8.2236   8.4298
    10.4003  10.5478

     occupation numbers 
     1.0000   1.0000   1.0000   1.0000   1.0000   1.0000   1.0000   1.0000
     1.0000   1.0000   1.0000   1.0000   1.0000   1.0000   1.0000   1.0000
     1.0000   1.0000   0.0000   0.0000   0.0000   0.0000   0.0000   0.0000
     0.0000   0.0000

          k = 0.0000-0.5774 0.0000 (  4114 PWs)   bands (ev):

    -6.6863  -6.6863  -5.0604  -5.0604  -4.1463  -4.1463   0.9837   0.9837
     1.4793   1.4793   2.3124   2.3124   2.5209   2.5209   4.7734   4.7734
     5.0547   5.0547   6.8476   6.8476   6.9698   6.9698   8.9632   8.9632
     9.6223   9.6223

     occupation numbers 
     1.0000   1.0000   1.0000   1.0000   1.0000   1.0000   1.0000   1.0000
     1.0000   1.0000   1.0000   1.0000   1.0000   1.0000   1.0000   1.0000
     1.0000   1.0000   0.0000   0.0000   0.0000   0.0000   0.0000   0.0000
     0.0000   0.0000

          k = 0.0000-0.5774 0.1247 (  4110 PWs)   bands (ev):

    -6.6131  -6.6094  -5.2211  -5.2169  -4.0934  -4.0856   0.9451   0.9842
     1.1471   1.2544   2.2561   2.4147   3.1344   3.3119   4.4079   4.5731
     4.7271   4.8096   6.8454   6.8837   7.4311   7.6423   9.0713   9.0904
     9.3051   9.4166

     occupation numbers 
     1.0000   1.0000   1.0000   1.0000   1.0000   1.0000   1.0000   1.0000
     1.0000   1.0000   1.0000   1.0000   1.0000   1.0000   1.0000   1.0000
     1.0000   1.0000   0.0000   0.0000   0.0000   0.0000   0.0000   0.0000
     0.0000   0.0000

          k = 0.0000-0.5774 0.2493 (  4102 PWs)   bands (ev):

    -6.4044  -6.3979  -5.5733  -5.5658  -3.9985  -3.9916   0.4352   0.4653
     1.5900   1.6970   2.3658   2.4803   3.5670   3.8437   4.0304   4.2194
     4.6895   4.8870   7.1938   7.2731   7.7866   7.8694   8.1917   8.5190
    10.0222  10.2347

     occupation numbers 
     1.0000   1.0000   1.0000   1.0000   1.0000   1.0000   1.0000   1.0000
     1.0000   1.0000   1.0000   1.0000   1.0000   1.0000   1.0000   1.0000
     1.0000   1.0000   0.0000   0.0000   0.0000   0.0000   0.0000   0.0000
     0.0000   0.0000

          k = 0.0000-0.5774-0.3740 (  4128 PWs)   bands (ev):

    -6.1920  -6.1920  -5.8407  -5.8407  -3.9526  -3.9526   0.2525   0.2525
     2.1187   2.1187   2.2488   2.2488   3.5313   3.5313   3.8852   3.8852
     5.7078   5.7078   6.6600   6.6600   7.7156   7.7156   8.5839   8.5839
    10.4916  10.4916

     occupation numbers 
     1.0000   1.0000   1.0000   1.0000   1.0000   1.0000   1.0000   1.0000
     1.0000   1.0000   1.0000   1.0000   1.0000   1.0000   1.0000   1.0000
     0.9999   0.9999   0.0000   0.0000   0.0000   0.0000   0.0000   0.0000
     0.0000   0.0000

          k = 0.1667 0.2887 0.0000 (  4143 PWs)   bands (ev):

    -7.1745  -7.1739  -4.5791  -4.5691  -4.3208  -4.3125   1.2043   1.3175
     1.4700   1.5781   2.8274   2.9900   3.9900   4.1440   4.2691   4.3388
     4.7378   4.7864   7.4316   7.4677   7.5207   7.5548   7.8893   7.9083
    10.2284  10.2348

     occupation numbers 
     1.0000   1.0000   1.0000   1.0000   1.0000   1.0000   1.0000   1.0000
     1.0000   1.0000   1.0000   1.0000   1.0000   1.0000   1.0000   1.0000
     1.0000   1.0000   0.0000   0.0000   0.0000   0.0000   0.0000   0.0000
     0.0000   0.0000

          k = 0.1667 0.2887 0.1247 (  4137 PWs)   bands (ev):

    -7.0842  -7.0821  -5.1495  -5.1457  -3.8139  -3.8088   1.2151   1.2799
     1.6281   1.6854   2.7381   2.8735   3.5544   3.6493   4.3246   4.4421
     5.3563   5.4231   6.7902   6.8608   7.5838   7.6240   8.1900   8.2210
    10.2001  10.2301

     occupation numbers 
     1.0000   1.0000   1.0000   1.0000   1.0000   1.0000   1.0000   1.0000
     1.0000   1.0000   1.0000   1.0000   1.0000   1.0000   1.0000   1.0000
     1.0000   1.0000   0.0000   0.0000   0.0000   0.0000   0.0000   0.0000
     0.0000   0.0000

          k = 0.1667 0.2887 0.2493 (  4126 PWs)   bands (ev):

    -6.8167  -6.8130  -5.8087  -5.8037  -3.3746  -3.3689   1.2244   1.3175
     1.7241   1.8581   2.5742   2.6900   3.2491   3.4295   4.7787   4.9072
     5.1021   5.2236   6.7340   6.7892   7.5787   7.5887   8.3750   8.4279
    10.3793  10.3997

     occupation numbers 
     1.0000   1.0000   1.0000   1.0000   1.0000   1.0000   1.0000   1.0000
     1.0000   1.0000   1.0000   1.0000   1.0000   1.0000   1.0000   1.0000
     1.0000   1.0000   0.0000   0.0000   0.0000   0.0000   0.0000   0.0000
     0.0000   0.0000

          k = 0.1667 0.2887-0.3740 (  4140 PWs)   bands (ev):

    -6.4289  -6.4259  -6.3322  -6.3292  -3.2088  -3.2073   1.2006   1.2968
     2.0223   2.0364   2.1492   2.2496   3.8125   3.9727   4.3714   4.4046
     5.0919   5.1770   6.6594   6.7386   8.0314   8.0475   8.2344   8.2542
    10.5759  10.6153

     occupation numbers 
     1.0000   1.0000   1.0000   1.0000   1.0000   1.0000   1.0000   1.0000
     1.0000   1.0000   1.0000   1.0000   1.0000   1.0000   1.0000   1.0000
     1.0000   1.0000   0.0000   0.0000   0.0000   0.0000   0.0000   0.0000
     0.0000   0.0000

          k = 0.1667 0.4811 0.0000 (  4130 PWs)   bands (ev):

    -6.7126  -6.7118  -4.8797  -4.8737  -4.3348  -4.3294   1.0562   1.1281
     1.3293   1.4372   2.3983   2.5970   2.8889   3.0116   3.9179   4.0061
     4.1592   4.1994   7.6771   7.7136   8.0299   8.0432   9.1370   9.1466
     9.8211   9.8370

     occupation numbers 
     1.0000   1.0000   1.0000   1.0000   1.0000   1.0000   1.0000   1.0000
     1.0000   1.0000   1.0000   1.0000   1.0000   1.0000   1.0000   1.0000
     1.0000   1.0000   0.0000   0.0000   0.0000   0.0000   0.0000   0.0000
     0.0000   0.0000

          k = 0.1667 0.4811 0.1247 (  4123 PWs)   bands (ev):

    -6.6299  -6.6263  -5.1792  -5.1741  -4.1071  -4.0986   0.7957   0.8284
     1.2866   1.3866   2.3279   2.4586   3.1188   3.2871   3.9797   4.1111
     4.8060   4.9257   7.2249   7.2905   8.2512   8.2841   8.3994   8.4698
     9.9592  10.0127

     occupation numbers 
     1.0000   1.0000   1.0000   1.0000   1.0000   1.0000   1.0000   1.0000
     1.0000   1.0000   1.0000   1.0000   1.0000   1.0000   1.0000   1.0000
     1.0000   1.0000   0.0000   0.0000   0.0000   0.0000   0.0000   0.0000
     0.0000   0.0000

          k = 0.1667 0.4811 0.2493 (  4120 PWs)   bands (ev):

    -6.3996  -6.3929  -5.6157  -5.6078  -3.9099  -3.9024   0.5329   0.5752
     1.2720   1.3474   2.0628   2.1369   3.3626   3.4902   4.9127   5.1205
     5.4703   5.7275   6.5867   6.6511   7.3532   7.4236   8.4349   8.5416
    10.2775  10.3532

     occupation numbers 
     1.0000   1.0000   1.0000   1.0000   1.0000   1.0000   1.0000   1.0000
     1.0000   1.0000   1.0000   1.0000   1.0000   1.0000   1.0000   1.0000
     1.0000   0.9997   0.0000   0.0000   0.0000   0.0000   0.0000   0.0000
     0.0000   0.0000

          k = 0.1667 0.4811-0.3740 (  4122 PWs)   bands (ev):

    -6.1436  -6.1413  -5.9293  -5.9263  -3.8656  -3.8640   0.5199   0.5474
     1.4546   1.4845   1.5970   1.6798   4.1964   4.2999   4.6907   4.7317
     5.4881   5.5643   6.7845   6.8859   7.4690   7.5322   8.1084   8.1548
    10.7541  10.7882

     occupation numbers 
     1.0000   1.0000   1.0000   1.0000   1.0000   1.0000   1.0000   1.0000
     1.0000   1.0000   1.0000   1.0000   1.0000   1.0000   1.0000   1.0000
     1.0000   1.0000   0.0000   0.0000   0.0000   0.0000   0.0000   0.0000
     0.0000   0.0000

          k = 0.3333 0.5774 0.0000 (  4158 PWs)   bands (ev):

    -6.5184  -6.5184  -4.7050  -4.7020  -4.7020  -4.6907   1.1997   1.3862
     1.3862   1.4002   2.7131   2.7131   2.8121   3.0110   3.0110   3.0408
     3.3961   3.3961   8.6556   8.6961   8.8609   8.8609   9.1066   9.1066
    10.8382  10.8382

     occupation numbers 
     1.0000   1.0000   1.0000   1.0000   1.0000   1.0000   1.0000   1.0000
     1.0000   1.0000   1.0000   1.0000   1.0000   1.0000   1.0000   1.0000
     1.0000   1.0000   0.0000   0.0000   0.0000   0.0000   0.0000   0.0000
     0.0000   0.0000

          k = 0.3333 0.5774 0.1247 (  4134 PWs)   bands (ev):

    -6.4472  -6.4426  -5.0920  -5.0884  -4.3753  -4.3654   0.9100   0.9241
     1.2811   1.4463   2.0889   2.1967   2.8026   2.9872   3.7998   3.8398
     4.1807   4.3740   8.1148   8.2695   8.5929   8.7104   8.7190   8.7508
    11.0290  11.0770

     occupation numbers 
     1.0000   1.0000   1.0000   1.0000   1.0000   1.0000   1.0000   1.0000
     1.0000   1.0000   1.0000   1.0000   1.0000   1.0000   1.0000   1.0000
     1.0000   1.0000   0.0000   0.0000   0.0000   0.0000   0.0000   0.0000
     0.0000   0.0000

          k = 0.3333 0.5774 0.2493 (  4131 PWs)   bands (ev):

    -6.2366  -6.2283  -5.5124  -5.5034  -4.1408  -4.1323   0.7265   0.7796
     0.8878   0.9462   1.3645   1.4759   3.8329   3.9668   4.8789   5.0301
     5.2244   5.5147   6.9923   7.1070   7.8214   7.9121   8.0274   8.0589
    11.6576  11.6688

     occupation numbers 
     1.0000   1.0000   1.0000   1.0000   1.0000   1.0000   1.0000   1.0000
     1.0000   1.0000   1.0000   1.0000   1.0000   1.0000   1.0000   1.0000
     1.0000   1.0000   0.0000   0.0000   0.0000   0.0000   0.0000   0.0000
     0.0000   0.0000

          k = 0.3333 0.5774-0.3740 (  4122 PWs)   bands (ev):

    -5.9112  -5.9112  -5.9045  -5.8974  -4.0488  -4.0488   0.7125   0.7125
     0.8638   0.9170   0.9899   0.9899   4.7595   4.7595   5.7277   5.7277
     5.9751   6.0725   6.0725   6.1179   7.2370   7.3070   7.4649   7.4649
    11.8520  11.8521

     occupation numbers 
     1.0000   1.0000   1.0000   1.0000   1.0000   1.0000   1.0000   1.0000
     1.0000   1.0000   1.0000   1.0000   1.0000   1.0000   0.9997   0.9997
     0.8151   0.4541   0.4541   0.2787   0.0000   0.0000   0.0000   0.0000
     0.0000   0.0000

          k = 0.0000 0.1925-0.1247 (  4152 PWs)   bands (ev):

    -7.4060  -7.4046  -5.2280  -5.2249  -3.5838  -3.5811   1.7757   1.8617
     2.4994   2.6974   2.7714   3.1333   4.2105   4.2612   4.3539   4.5274
     4.7795   4.9655   6.9261   7.0187   7.3297   7.4531   7.7431   7.8363
    10.6425  10.6830

     occupation numbers 
     1.0000   1.0000   1.0000   1.0000   1.0000   1.0000   1.0000   1.0000
     1.0000   1.0000   1.0000   1.0000   1.0000   1.0000   1.0000   1.0000
     1.0000   1.0000   0.0000   0.0000   0.0000   0.0000   0.0000   0.0000
     0.0000   0.0000

          k = 0.0000 0.1925-0.2493 (  4152 PWs)   bands (ev):

    -7.1197  -7.1171  -6.0015  -5.9978  -2.9213  -2.9171   1.7779   1.8454
     2.6248   2.7860   3.0326   3.2779   3.6943   3.9158   4.1335   4.2191
     4.5986   4.7509   6.9525   6.9937   7.5970   7.6944   7.7526   7.8230
    10.5832  10.6029

     occupation numbers 
     1.0000   1.0000   1.0000   1.0000   1.0000   1.0000   1.0000   1.0000
     1.0000   1.0000   1.0000   1.0000   1.0000   1.0000   1.0000   1.0000
     1.0000   1.0000   0.0000   0.0000   0.0000   0.0000   0.0000   0.0000
     0.0000   0.0000

          k = 0.0000 0.3849-0.1247 (  4121 PWs)   bands (ev):

    -6.9583  -6.9559  -5.0647  -5.0610  -4.0334  -4.0274   1.2825   1.3946
     1.7797   1.8981   2.5070   2.7414   2.7619   2.9864   4.3101   4.5579
     4.7550   4.9146   6.9210   7.0126   7.6242   7.8479   9.0959   9.1086
     9.9146  10.0255

     occupation numbers 
     1.0000   1.0000   1.0000   1.0000   1.0000   1.0000   1.0000   1.0000
     1.0000   1.0000   1.0000   1.0000   1.0000   1.0000   1.0000   1.0000
     1.0000   1.0000   0.0000   0.0000   0.0000   0.0000   0.0000   0.0000
     0.0000   0.0000

          k = 0.0000 0.3849-0.2493 (  4136 PWs)   bands (ev):

    -6.7140  -6.7100  -5.6772  -5.6721  -3.6641  -3.6582   1.1627   1.2364
     1.9206   2.0801   2.5206   2.6659   3.2472   3.6092   3.8621   4.0301
     4.3589   4.5813   7.3237   7.3703   8.1718   8.3211   8.7798   8.7947
    10.5368  10.6467

     occupation numbers 
     1.0000   1.0000   1.0000   1.0000   1.0000   1.0000   1.0000   1.0000
     1.0000   1.0000   1.0000   1.0000   1.0000   1.0000   1.0000   1.0000
     1.0000   1.0000   0.0000   0.0000   0.0000   0.0000   0.0000   0.0000
     0.0000   0.0000

          k =-0.1667 0.4811-0.1247 (  4123 PWs)   bands (ev):

    -6.6411  -6.6376  -5.0931  -5.0884  -4.2195  -4.2107   0.9874   1.0394
     1.3790   1.4509   2.3521   2.5142   2.7658   3.1357   3.5902   3.7820
     5.0306   5.0942   7.0729   7.1336   8.1551   8.2036   9.1884   9.2122
    10.0727  10.1270

     occupation numbers 
     1.0000   1.0000   1.0000   1.0000   1.0000   1.0000   1.0000   1.0000
     1.0000   1.0000   1.0000   1.0000   1.0000   1.0000   1.0000   1.0000
     1.0000   1.0000   0.0000   0.0000   0.0000   0.0000   0.0000   0.0000
     0.0000   0.0000

          k =-0.1667 0.4811-0.2493 (  4120 PWs)   bands (ev):

    -6.4234  -6.4173  -5.5486  -5.5415  -3.9912  -3.9837   0.7810   0.8537
     1.1746   1.2417   2.0164   2.0915   3.4695   3.6800   4.3805   4.5205
     5.2784   5.4092   6.8454   6.8801   8.0133   8.0755   8.4855   8.5286
    10.5406  10.5846

     occupation numbers 
     1.0000   1.0000   1.0000   1.0000   1.0000   1.0000   1.0000   1.0000
     1.0000   1.0000   1.0000   1.0000   1.0000   1.0000   1.0000   1.0000
     1.0000   1.0000   0.0000   0.0000   0.0000   0.0000   0.0000   0.0000
     0.0000   0.0000

     the Fermi energy is     6.0614 ev

!    total energy              =     -85.64438002 Ry
     estimated scf accuracy    <          4.1E-09 Ry
     smearing contrib. (-TS)   =      -0.00009294 Ry
     internal energy E=F+TS    =     -85.64428708 Ry

     The total energy is F=E-TS. E is the sum of the following terms:
     one-electron contribution =      10.07094362 Ry
     hartree contribution      =       3.38589500 Ry
     xc contribution           =     -49.69064879 Ry
     ewald contribution        =     -49.41047690 Ry

     convergence has been achieved in   8 iterations


     Computing stress (Cartesian axis) and pressure

          total   stress  (Ry/bohr**3)                   (kbar)     P=       20.60
   0.00012334   0.00000000  -0.00000000           18.14        0.00       -0.00
   0.00000000   0.00012334  -0.00000000            0.00       18.14       -0.00
   0.00000000   0.00000000   0.00017335            0.00        0.00       25.50

     kinetic stress (kbar)   2326.41      0.00      0.00
                                0.00   2326.41      0.00
                                0.00      0.00   2197.29

     local   stress (kbar)    153.29     -0.00     -0.00
                               -0.00    153.29      0.00
                               -0.00      0.00   -584.85

     nonloc. stress (kbar)   2355.67      0.00      0.00
                                0.00   2355.67      0.00
                                0.00      0.00   2345.32

     hartree stress (kbar)    180.44      0.00      0.00
                                0.00    180.44     -0.00
                                0.00     -0.00    359.08

     exc-cor stress (kbar)   6961.35      0.00      0.00
                                0.00   6961.35     -0.00
                                0.00     -0.00   6963.79

     corecor stress (kbar)  -8225.06     -0.00     -0.00
                               -0.00  -8225.06      0.00
                               -0.00      0.00  -8216.70

     ewald   stress (kbar)  -3733.95      0.00      0.00
                                0.00  -3733.95     -0.00
                                0.00     -0.00  -3038.43

     hubbard stress (kbar)      0.00      0.00      0.00
                                0.00      0.00      0.00
                                0.00      0.00      0.00

     DFT-D   stress (kbar)      0.00      0.00      0.00
                                0.00      0.00      0.00
                                0.00      0.00      0.00

     XDM     stress (kbar)      0.00      0.00      0.00
                                0.00      0.00      0.00
                                0.00      0.00      0.00

     dft-nl  stress (kbar)      0.00      0.00      0.00
                                0.00      0.00      0.00
                                0.00      0.00      0.00

     TS-vdW  stress (kbar)      0.00      0.00      0.00
                                0.00      0.00      0.00
                                0.00      0.00      0.00

     MDB     stress (kbar)      0.00      0.00      0.00
                                0.00      0.00      0.00
                                0.00      0.00      0.00

     3D-RISM stress (kbar)      0.00      0.00      0.00
                                0.00      0.00      0.00
                                0.00      0.00      0.00


     Writing all to output data dir /home/user/workspace/qe_runs/strain_clamp_p0050/out/teclamp_p0050.save/ :
     XML data file, charge density, pseudopotentials, collected wavefunctions

     init_run     :      2.14s CPU      2.34s WALL (       1 calls)
     electrons    :     54.21s CPU     57.52s WALL (       1 calls)
     stress       :      4.42s CPU      4.72s WALL (       1 calls)

     Called by init_run:
     wfcinit      :      1.25s CPU      1.31s WALL (       1 calls)
     wfcinit:atom :      0.01s CPU      0.01s WALL (      34 calls)
     wfcinit:wfcr :      1.18s CPU      1.24s WALL (      34 calls)
     potinit      :      0.18s CPU      0.19s WALL (       1 calls)
     hinit0       :      0.45s CPU      0.46s WALL (       1 calls)

     Called by electrons:
     c_bands      :     44.01s CPU     45.15s WALL (       8 calls)
     sum_band     :      7.84s CPU      9.17s WALL (       8 calls)
     v_of_rho     :      0.23s CPU      0.24s WALL (       9 calls)
     v_h          :      0.01s CPU      0.01s WALL (       9 calls)
     v_xc         :      0.25s CPU      0.26s WALL (      10 calls)
     newd         :      2.23s CPU      3.14s WALL (       9 calls)
     mix_rho      :      0.11s CPU      0.12s WALL (       8 calls)

     Called by c_bands:
     init_us_2    :      0.58s CPU      0.59s WALL (     612 calls)
     cegterg      :     37.49s CPU     38.57s WALL (     272 calls)

     Called by sum_band:
     sum_band:wei :      0.01s CPU      0.01s WALL (       8 calls)
     sum_band:loo :      5.77s CPU      5.97s WALL (       8 calls)
     sum_band:buf :      0.07s CPU      0.07s WALL (     272 calls)
     sum_band:ini :      0.25s CPU      0.25s WALL (     272 calls)
     sum_band:cal :      0.55s CPU      0.57s WALL (     272 calls)
     sum_band:bec :      0.64s CPU      0.65s WALL (     272 calls)
     addusdens    :      1.98s CPU      3.11s WALL (       8 calls)
                                        0.00s GPU  (       8 calls)
     addusd:skk   :      0.00s CPU      0.00s WALL (       8 calls)
                                        0.00s GPU  (       8 calls)

     Called by *egterg:
     cdiaghg      :      1.13s CPU      1.14s WALL (    1573 calls)
     cegterg:over :      1.73s CPU      1.75s WALL (    1301 calls)
     cegterg:upda :      0.99s CPU      1.00s WALL (    1301 calls)
     cegterg:last :      1.89s CPU      1.90s WALL (     757 calls)
     h_psi        :     29.84s CPU     30.89s WALL (    1607 calls)
     s_psi        :      1.80s CPU      1.82s WALL (    1607 calls)
     g_psi        :      0.35s CPU      0.36s WALL (    1301 calls)

     Called by h_psi:
     h_psi:calbec :      2.11s CPU      2.17s WALL (    1607 calls)
     vloc_psi     :     25.76s CPU     26.70s WALL (    1607 calls)
                                        0.00s GPU  (    1607 calls)
     add_vuspsi   :      1.79s CPU      1.83s WALL (    1607 calls)

     General routines
     calbec       :      3.57s CPU      3.66s WALL (    2321 calls)
     fft          :      0.38s CPU      0.39s WALL (     228 calls)
     ffts         :      0.16s CPU      0.16s WALL (      68 calls)
     fftw         :     25.63s CPU     26.57s WALL (  111844 calls)
     interpolate  :      0.18s CPU      0.18s WALL (      36 calls)

     Parallel routines

     PWSCF        :   1m 0.93s CPU   1m 4.84s WALL


   This run was terminated on:   7:46:33  20Aug2026            

=------------------------------------------------------------------------------=
   JOB DONE.
=------------------------------------------------------------------------------=
