
     Program PWSCF v.7.5 starts on 20Aug2026 at  7:46:34 

     This program is part of the open-source Quantum ESPRESSO suite
     for quantum simulation of materials; please cite
         "P. Giannozzi et al., J. Phys.:Condens. Matter 21 395502 (2009);
         "P. Giannozzi et al., J. Phys.:Condens. Matter 29 465901 (2017);
         "P. Giannozzi et al., J. Chem. Phys. 152 154105 (2020);
          URL http://www.quantum-espresso.org", 
     in publications or presentations arising from this work. More details at
     http://www.quantum-espresso.org/quote

     Parallel version (MPI & OpenMP), running on       2 processor cores
     Number of MPI processes:                 2
     Threads/MPI process:                     1

     MPI processes distributed on     1 nodes
     2572 MiB available memory on the printing compute node when the environment starts

     Reading input from strain_clamp_p0050/bands.in

     Current dimensions of program PWSCF are:
     Max number of different atomic species (ntypx) = 10
     Max number of k-points (npk) =  40000
     Max angular momentum in pseudopotentials (lmaxx) =  4
     file Te.rel-pbe-n-rrkjus_psl.1.0.0.UPF: wavefunction(s)  5S renormalized

     Atomic positions and unit cell read from directory:
     /home/user/workspace/qe_runs/strain_clamp_p0050/out/teclamp_p0050.save/

     Message from routine setup:
     using ibrav=0 with symmetry is DISCOURAGED, use correct ibrav instead

     R & G space division:  proc/nbgrp/npool/nimage =       2
     Subspace diagonalization in iterative solution of the eigenvalue problem:
     a serial algorithm will be used


     Parallelization info
     --------------------
     sticks:   dense  smooth     PW     G-vecs:    dense   smooth      PW
     Min         741     482    147                30370    16516    2709
     Max         742     485    148                30371    16517    2712
     Sum        1483     967    295                60741    33033    5421

     Using Slab Decomposition



     bravais-lattice index     =            0
     lattice parameter (alat)  =       8.4229  a.u.
     unit-cell volume          =     691.8241 (a.u.)^3
     number of atoms/cell      =            3
     number of atomic types    =            1
     number of electrons       =        18.00
     number of Kohn-Sham states=           28
     kinetic-energy cutoff     =      50.0000  Ry
     charge density cutoff     =     300.0000  Ry
     Exchange-correlation= PBE
                           (   1   4   3   4   0   0   0)
     Non magnetic calculation with spin-orbit


     celldm(1)=   8.422887  celldm(2)=   0.000000  celldm(3)=   0.000000
     celldm(4)=   0.000000  celldm(5)=   0.000000  celldm(6)=   0.000000

     crystal axes: (cart. coord. in units of alat)
               a(1) = (   1.000000   0.000000   0.000000 )  
               a(2) = (  -0.500000   0.866025   0.000000 )  
               a(3) = (   0.000000   0.000000   1.336848 )  

     reciprocal axes: (cart. coord. in units 2 pi/alat)
               b(1) = (  1.000000  0.577350 -0.000000 )  
               b(2) = (  0.000000  1.154701  0.000000 )  
               b(3) = (  0.000000 -0.000000  0.748028 )  


     PseudoPot. # 1 for Te read from file:
     /home/user/workspace/qe_runs/pseudo/Te.rel-pbe-n-rrkjus_psl.1.0.0.UPF
     MD5 check sum: 7fd30b6833abd190471e4dcc2367351b
     Pseudo is Ultrasoft + core correction, Zval =  6.0
     Generated using &quot;atomic&quot; code by A. Dal Corso  v.6.3
     Using radial grid of 1245 points, 10 beta functions with: 
                l(1) =   0
                l(2) =   0
                l(3) =   1
                l(4) =   1
                l(5) =   1
                l(6) =   1
                l(7) =   2
                l(8) =   2
                l(9) =   2
               l(10) =   2
     Q(r) pseudized with 0 coefficients 


     atomic species   valence    mass     pseudopotential
     Te                6.00   127.60000     Te( 1.00)

      6 Sym. Ops. (no inversion) found ( 4 have fractional translation)


                                    s                        frac. trans.

      isym =  1     identity                                     

 cryst.   s( 1) = (     1          0          0      )
                  (     0          1          0      )
                  (     0          0          1      )

 cart.    s( 1) = (  1.0000000  0.0000000  0.0000000 )
                  (  0.0000000  1.0000000  0.0000000 )
                  (  0.0000000  0.0000000  1.0000000 )


      isym =  2     180 deg rotation - cart. axis [1,0,0]        

 cryst.   s( 2) = (     1          0          0      )    f =(  0.0000000 )
                  (    -1         -1          0      )       (  0.0000000 )
                  (     0          0         -1      )       (  0.3333334 )

 cart.    s( 2) = (  1.0000000  0.0000000  0.0000000 )    f =(  0.0000000 )
                  (  0.0000000 -1.0000000  0.0000000 )       (  0.0000000 )
                  (  0.0000000  0.0000000 -1.0000000 )       (  0.4456162 )


      isym =  3     120 deg rotation - cryst. axis [0,0,1]       

 cryst.   s( 3) = (     0          1          0      )    f =(  0.0000000 )
                  (    -1         -1          0      )       (  0.0000000 )
                  (     0          0          1      )       ( -0.3333333 )

 cart.    s( 3) = ( -0.5000000 -0.8660255  0.0000000 )    f =(  0.0000000 )
                  (  0.8660253 -0.5000000  0.0000000 )       (  0.0000000 )
                  (  0.0000000  0.0000000  1.0000000 )       ( -0.4456160 )


      isym =  4     120 deg rotation - cryst. axis [0,0,-1]      

 cryst.   s( 4) = (    -1         -1          0      )    f =(  0.0000000 )
                  (     1          0          0      )       (  0.0000000 )
                  (     0          0          1      )       (  0.3333334 )

 cart.    s( 4) = ( -0.5000000  0.8660255  0.0000000 )    f =(  0.0000000 )
                  ( -0.8660253 -0.5000000  0.0000000 )       (  0.0000000 )
                  (  0.0000000  0.0000000  1.0000000 )       (  0.4456162 )


      isym =  5     180 deg rotation - cryst. axis [0,1,0]       

 cryst.   s( 5) = (    -1         -1          0      )    f =(  0.0000000 )
                  (     0          1          0      )       (  0.0000000 )
                  (     0          0         -1      )       ( -0.3333333 )

 cart.    s( 5) = ( -0.5000000 -0.8660255  0.0000000 )    f =(  0.0000000 )
                  ( -0.8660253  0.5000000  0.0000000 )       (  0.0000000 )
                  (  0.0000000  0.0000000 -1.0000000 )       ( -0.4456160 )


      isym =  6     180 deg rotation - cryst. axis [1,1,0]       

 cryst.   s( 6) = (     0          1          0      )
                  (     1          0          0      )
                  (     0          0         -1      )

 cart.    s( 6) = ( -0.5000000  0.8660255  0.0000000 )
                  (  0.8660253  0.5000000  0.0000000 )
                  (  0.0000000  0.0000000 -1.0000000 )


   Cartesian axes

     site n.     atom                  positions (alat units)
         1        Te     tau(   1) = (   0.2636000   0.0000000   0.4456160  )
         2        Te     tau(   2) = (  -0.1318000   0.2282843   0.8912322  )
         3        Te     tau(   3) = (  -0.1318000  -0.2282843   0.0000000  )

   Crystallographic axes

     site n.     atom                  positions (cryst. coord.)
         1        Te     tau(   1) = (  0.2636000  0.0000000  0.3333333  )
         2        Te     tau(   2) = (  0.0000000  0.2636000  0.6666667  )
         3        Te     tau(   3) = ( -0.2636000 -0.2636000  0.0000000  )

     number of k points=     7  Gaussian smearing, width (Ry)=  0.0100
                       cart. coord. in units 2pi/alat
        k(    1) = (   0.3333333   0.5773503   0.0000000), wk =   0.1428571
        k(    2) = (   0.3333333   0.5773503   0.1496056), wk =   0.1428571
        k(    3) = (   0.3333333   0.5773503   0.2992112), wk =   0.1428571
        k(    4) = (   0.3333333   0.5773503   0.3740140), wk =   0.1428571
        k(    5) = (   0.3333333   0.5773503   0.4488168), wk =   0.1428571
        k(    6) = (   0.3333333   0.5773503   0.5984224), wk =   0.1428571
        k(    7) = (   0.0000000   0.0000000   0.3740140), wk =   0.1428571

                       cryst. coord.
        k(    1) = (   0.3333333   0.3333333   0.0000000), wk =   0.1428571
        k(    2) = (   0.3333333   0.3333333   0.2000000), wk =   0.1428571
        k(    3) = (   0.3333333   0.3333333   0.4000000), wk =   0.1428571
        k(    4) = (   0.3333333   0.3333333   0.5000000), wk =   0.1428571
        k(    5) = (   0.3333333   0.3333333   0.6000000), wk =   0.1428571
        k(    6) = (   0.3333333   0.3333333   0.8000000), wk =   0.1428571
        k(    7) = (   0.0000000   0.0000000   0.5000000), wk =   0.1428571

     Dense  grid:    60741 G-vectors     FFT dimensions: (  48,  48,  72)

     Smooth grid:    33033 G-vectors     FFT dimensions: (  40,  40,  54)

     Dynamical RAM for                 wfc:       1.76 MB

     Dynamical RAM for     wfc (w. buffer):       1.76 MB

     Dynamical RAM for           str. fact:       0.46 MB

     Dynamical RAM for           local pot:       0.00 MB

     Dynamical RAM for          nlocal pot:       3.21 MB

     Dynamical RAM for                qrad:       3.64 MB

     Dynamical RAM for          rho,v,vnew:      13.15 MB

     Dynamical RAM for           G-vectors:       1.86 MB

     Dynamical RAM for          h,s,v(r/c):       0.14 MB

     Dynamical RAM for          <psi|beta>:       0.09 MB

     Dynamical RAM for                 psi:       3.53 MB

     Dynamical RAM for                hpsi:       3.53 MB

     Dynamical RAM for                spsi:       3.53 MB

     Dynamical RAM for      wfcinit/wfcrot:       2.66 MB

     Dynamical RAM for           addusdens:     284.08 MB

     Estimated static dynamical RAM per process >      30.09 MB

     Estimated max dynamical RAM per process >     314.17 MB

     Estimated total dynamical RAM >     628.34 MB

     The potential is recalculated from file :
     /home/user/workspace/qe_runs/strain_clamp_p0050/out/teclamp_p0050.save/charge-density

     Starting wfcs are   24 randomized atomic wfcs +    4 random wfcs

     Band Structure Calculation
     Davidson diagonalization with overlap

     Computing kpt #:     1  of     7
     total cpu time spent up to now is        1.9 secs

     Computing kpt #:     2  of     7
     total cpu time spent up to now is        2.7 secs

     Computing kpt #:     3  of     7
     total cpu time spent up to now is        3.4 secs

     Computing kpt #:     4  of     7
     total cpu time spent up to now is        4.5 secs

     Computing kpt #:     5  of     7
     total cpu time spent up to now is        5.2 secs

     Computing kpt #:     6  of     7
     total cpu time spent up to now is        5.9 secs

     Computing kpt #:     7  of     7
     total cpu time spent up to now is        6.8 secs

     ethr =  1.00E-06,  avg # of iterations = 36.7

     total cpu time spent up to now is        6.8 secs

     End of band structure calculation

          k = 0.3333 0.5774 0.0000 (  4158 PWs)   bands (ev):

    -6.5183  -6.5183  -4.7049  -4.7019  -4.7019  -4.6906   1.1999   1.3863
     1.3863   1.4003   2.7132   2.7132   2.8121   3.0110   3.0110   3.0409
     3.3962   3.3962   8.6557   8.6962   8.8610   8.8610   9.1068   9.1068
    10.8382  10.8382  11.8267  11.8269

          k = 0.3333 0.5774 0.1496 (  4134 PWs)   bands (ev):

    -6.4155  -6.4101  -5.1751  -5.1702  -4.3195  -4.3093   0.8457   0.8734
     1.1992   1.3452   1.9278   2.0420   2.9629   3.1435   4.0096   4.0710
     4.3963   4.6036   7.9244   8.0698   8.5103   8.5642   8.5744   8.6428
    11.1178  11.1684  11.5883  11.6238

          k = 0.3333 0.5774 0.2992 (  4128 PWs)   bands (ev):

    -6.1181  -6.1087  -5.6773  -5.6674  -4.0839  -4.0781   0.7484   0.7507
     0.8086   0.8510   1.1421   1.2480   4.3016   4.4065   5.2890   5.4970
     5.5521   5.9081   6.5022   6.5989   7.4500   7.6166   7.7080   7.7492
    11.7517  11.7723  11.9542  11.9998

          k = 0.3333 0.5774 0.3740 (  4122 PWs)   bands (ev):

    -5.9110  -5.9110  -5.9044  -5.8973  -4.0487  -4.0487   0.7127   0.7127
     0.8638   0.9170   0.9900   0.9900   4.7596   4.7596   5.7278   5.7278
     5.9752   6.0726   6.0726   6.1179   7.2371   7.3071   7.4650   7.4650
    11.8520  11.8520  12.4879  12.4944

          k = 0.3333 0.5774 0.4488 (  4128 PWs)   bands (ev):

    -6.1181  -6.1087  -5.6773  -5.6674  -4.0839  -4.0781   0.7484   0.7507
     0.8086   0.8510   1.1421   1.2480   4.3016   4.4065   5.2890   5.4970
     5.5521   5.9081   6.5022   6.5989   7.4500   7.6166   7.7080   7.7492
    11.7517  11.7723  11.9543  11.9998

          k = 0.3333 0.5774 0.5984 (  4134 PWs)   bands (ev):

    -6.4155  -6.4101  -5.1751  -5.1702  -4.3195  -4.3093   0.8457   0.8734
     1.1992   1.3452   1.9278   2.0420   2.9629   3.1435   4.0096   4.0710
     4.3963   4.6036   7.9244   8.0698   8.5103   8.5642   8.5744   8.6428
    11.1178  11.1684  11.5883  11.6238

          k = 0.0000 0.0000 0.3740 (  4190 PWs)   bands (ev):

    -6.7969  -6.7969  -6.7940  -6.7940  -2.2557  -2.2557   1.7685   1.7685
     3.1352   3.1352   3.4240   3.4240   4.4998   4.4998   4.7417   4.7417
     5.0237   5.0237   6.3909   6.3909   6.5038   6.5038   6.7275   6.7275
     9.9604   9.9604  11.2744  11.2747

     Writing all to output data dir /home/user/workspace/qe_runs/strain_clamp_p0050/out/teclamp_p0050.save/ :
     XML data file, pseudopotentials, collected wavefunctions

     init_run     :      0.92s CPU      1.01s WALL (       1 calls)
     electrons    :      5.55s CPU      5.68s WALL (       1 calls)

     Called by init_run:
     wfcinit      :      0.00s CPU      0.00s WALL (       1 calls)
     wfcinit:atom :      0.00s CPU      0.00s WALL (       7 calls)
     wfcinit:wfcr :      0.26s CPU      0.27s WALL (       7 calls)
     potinit      :      0.18s CPU      0.18s WALL (       1 calls)
     hinit0       :      0.46s CPU      0.46s WALL (       1 calls)

     Called by electrons:
     c_bands      :      5.55s CPU      5.68s WALL (       1 calls)
     v_of_rho     :      0.03s CPU      0.03s WALL (       1 calls)
     v_h          :      0.00s CPU      0.00s WALL (       1 calls)
     v_xc         :      0.03s CPU      0.03s WALL (       1 calls)
     newd         :      0.27s CPU      0.35s WALL (       1 calls)

     Called by c_bands:
     init_us_2    :      0.01s CPU      0.01s WALL (       7 calls)
     cegterg      :      5.11s CPU      5.22s WALL (      17 calls)

     Called by sum_band:

     Called by *egterg:
     cdiaghg      :      0.22s CPU      0.22s WALL (     264 calls)
     cegterg:over :      0.29s CPU      0.29s WALL (     257 calls)
     cegterg:upda :      0.18s CPU      0.18s WALL (     257 calls)
     cegterg:last :      0.36s CPU      0.36s WALL (     104 calls)
     h_psi        :      3.92s CPU      4.02s WALL (     281 calls)
     s_psi        :      0.25s CPU      0.25s WALL (     281 calls)
     g_psi        :      0.05s CPU      0.05s WALL (     257 calls)

     Called by h_psi:
     h_psi:calbec :      0.30s CPU      0.31s WALL (     281 calls)
     vloc_psi     :      3.35s CPU      3.44s WALL (     281 calls)
                                        0.00s GPU  (     281 calls)
     add_vuspsi   :      0.25s CPU      0.25s WALL (     281 calls)

     General routines
     calbec       :      0.30s CPU      0.31s WALL (     281 calls)
     fft          :      0.21s CPU      0.22s WALL (      19 calls)
     ffts         :      0.14s CPU      0.14s WALL (       4 calls)
     fftw         :      2.90s CPU      2.98s WALL (   12644 calls)
     interpolate  :      0.14s CPU      0.14s WALL (       4 calls)
     davcio       :      0.01s CPU      0.02s WALL (      14 calls)

     Parallel routines

     PWSCF        :      6.62s CPU      8.60s WALL


   This run was terminated on:   7:46:43  20Aug2026            

=------------------------------------------------------------------------------=
   JOB DONE.
=------------------------------------------------------------------------------=
