
     Program PWSCF v.7.5 starts on 20Aug2026 at  7:38:59 

     This program is part of the open-source Quantum ESPRESSO suite
     for quantum simulation of materials; please cite
         "P. Giannozzi et al., J. Phys.:Condens. Matter 21 395502 (2009);
         "P. Giannozzi et al., J. Phys.:Condens. Matter 29 465901 (2017);
         "P. Giannozzi et al., J. Chem. Phys. 152 154105 (2020);
          URL http://www.quantum-espresso.org", 
     in publications or presentations arising from this work. More details at
     http://www.quantum-espresso.org/quote

     Parallel version (MPI & OpenMP), running on       2 processor cores
     Number of MPI processes:                 2
     Threads/MPI process:                     1

     MPI processes distributed on     1 nodes
     3189 MiB available memory on the printing compute node when the environment starts

     Reading input from bands_conv.in

     Current dimensions of program PWSCF are:
     Max number of different atomic species (ntypx) = 10
     Max number of k-points (npk) =  40000
     Max angular momentum in pseudopotentials (lmaxx) =  4
     file Te.rel-pbe-n-rrkjus_psl.1.0.0.UPF: wavefunction(s)  5S renormalized

     Atomic positions and unit cell read from directory:
     /home/user/workspace/qe_runs/strain_0/conv_out/te0_conv.save/

     Message from routine setup:
     using ibrav=0 with symmetry is DISCOURAGED, use correct ibrav instead

     R & G space division:  proc/nbgrp/npool/nimage =       2
     Subspace diagonalization in iterative solution of the eigenvalue problem:
     a serial algorithm will be used


     Parallelization info
     --------------------
     sticks:   dense  smooth     PW     G-vecs:    dense   smooth      PW
     Min        1362     684    198                76986    27260    4276
     Max        1363     685    199                76991    27267    4277
     Sum        2725    1369    397               153977    54527    8553

     Using Slab Decomposition



     bravais-lattice index     =            0
     lattice parameter (alat)  =       8.4229  a.u.
     unit-cell volume          =     688.4532 (a.u.)^3
     number of atoms/cell      =            3
     number of atomic types    =            1
     number of electrons       =        18.00
     number of Kohn-Sham states=           28
     kinetic-energy cutoff     =      70.0000  Ry
     charge density cutoff     =     560.0000  Ry
     Exchange-correlation= PBE
                           (   1   4   3   4   0   0   0)
     Non magnetic calculation with spin-orbit


     celldm(1)=   8.422887  celldm(2)=   0.000000  celldm(3)=   0.000000
     celldm(4)=   0.000000  celldm(5)=   0.000000  celldm(6)=   0.000000

     crystal axes: (cart. coord. in units of alat)
               a(1) = (   1.000000   0.000000   0.000000 )  
               a(2) = (  -0.500000   0.866108   0.000000 )  
               a(3) = (   0.000000   0.000000   1.330207 )  

     reciprocal axes: (cart. coord. in units 2 pi/alat)
               b(1) = (  1.000000  0.577295 -0.000000 )  
               b(2) = (  0.000000  1.154590  0.000000 )  
               b(3) = (  0.000000 -0.000000  0.751763 )  


     PseudoPot. # 1 for Te read from file:
     /home/user/workspace/qe_runs/pseudo/Te.rel-pbe-n-rrkjus_psl.1.0.0.UPF
     MD5 check sum: 7fd30b6833abd190471e4dcc2367351b
     Pseudo is Ultrasoft + core correction, Zval =  6.0
     Generated using &quot;atomic&quot; code by A. Dal Corso  v.6.3
     Using radial grid of 1245 points, 10 beta functions with: 
                l(1) =   0
                l(2) =   0
                l(3) =   1
                l(4) =   1
                l(5) =   1
                l(6) =   1
                l(7) =   2
                l(8) =   2
                l(9) =   2
               l(10) =   2
     Q(r) pseudized with 0 coefficients 


     atomic species   valence    mass     pseudopotential
     Te                6.00   127.60000     Te( 1.00)

      2 Sym. Ops. (no inversion) found ( 1 have fractional translation)


                                    s                        frac. trans.

      isym =  1     identity                                     

 cryst.   s( 1) = (     1          0          0      )
                  (     0          1          0      )
                  (     0          0          1      )

 cart.    s( 1) = (  1.0000000  0.0000000  0.0000000 )
                  (  0.0000000  1.0000000  0.0000000 )
                  (  0.0000000  0.0000000  1.0000000 )


      isym =  2     180 deg rotation - cart. axis [1,0,0]        

 cryst.   s( 2) = (     1          0          0      )    f =(  0.0000000 )
                  (    -1         -1          0      )       (  0.0000000 )
                  (     0          0         -1      )       (  0.3333334 )

 cart.    s( 2) = (  1.0000000  0.0000000  0.0000000 )    f =(  0.0000000 )
                  (  0.0000000 -1.0000000  0.0000000 )       (  0.0000000 )
                  (  0.0000000  0.0000000 -1.0000000 )       (  0.4434025 )


   Cartesian axes

     site n.     atom                  positions (alat units)
         1        Te     tau(   1) = (   0.2636000   0.0000000   0.4434024  )
         2        Te     tau(   2) = (  -0.1318000   0.2283061   0.8868049  )
         3        Te     tau(   3) = (  -0.1318000  -0.2283061   0.0000000  )

   Crystallographic axes

     site n.     atom                  positions (cryst. coord.)
         1        Te     tau(   1) = (  0.2636000  0.0000000  0.3333333  )
         2        Te     tau(   2) = ( -0.0000000  0.2636000  0.6666667  )
         3        Te     tau(   3) = ( -0.2636000 -0.2636000  0.0000000  )

     number of k points=     7  Gaussian smearing, width (Ry)=  0.0100
                       cart. coord. in units 2pi/alat
        k(    1) = (   0.3333333   0.5772951   0.0000000), wk =   0.1428571
        k(    2) = (   0.3333333   0.5772951   0.1503525), wk =   0.1428571
        k(    3) = (   0.3333333   0.5772951   0.3007050), wk =   0.1428571
        k(    4) = (   0.3333333   0.5772951   0.3758813), wk =   0.1428571
        k(    5) = (   0.3333333   0.5772951   0.4510575), wk =   0.1428571
        k(    6) = (   0.3333333   0.5772951   0.6014100), wk =   0.1428571
        k(    7) = (   0.0000000   0.0000000   0.3758813), wk =   0.1428571

                       cryst. coord.
        k(    1) = (   0.3333333   0.3333333   0.0000000), wk =   0.1428571
        k(    2) = (   0.3333333   0.3333333   0.2000000), wk =   0.1428571
        k(    3) = (   0.3333333   0.3333333   0.4000000), wk =   0.1428571
        k(    4) = (   0.3333333   0.3333333   0.5000000), wk =   0.1428571
        k(    5) = (   0.3333333   0.3333333   0.6000000), wk =   0.1428571
        k(    6) = (   0.3333333   0.3333333   0.8000000), wk =   0.1428571
        k(    7) = (   0.0000000   0.0000000   0.5000000), wk =   0.1428571

     Dense  grid:   153977 G-vectors     FFT dimensions: (  64,  64,  90)

     Smooth grid:    54527 G-vectors     FFT dimensions: (  45,  45,  60)

     Dynamical RAM for                 wfc:       2.91 MB

     Dynamical RAM for     wfc (w. buffer):       2.91 MB

     Dynamical RAM for           str. fact:       1.17 MB

     Dynamical RAM for           local pot:       0.00 MB

     Dynamical RAM for          nlocal pot:       5.30 MB

     Dynamical RAM for                qrad:       4.97 MB

     Dynamical RAM for          rho,v,vnew:      30.97 MB

     Dynamical RAM for           G-vectors:       4.61 MB

     Dynamical RAM for          h,s,v(r/c):       0.14 MB

     Dynamical RAM for          <psi|beta>:       0.09 MB

     Dynamical RAM for                 psi:       5.82 MB

     Dynamical RAM for                hpsi:       5.82 MB

     Dynamical RAM for                spsi:       5.82 MB

     Dynamical RAM for      wfcinit/wfcrot:       4.38 MB

     Dynamical RAM for           addusdens:     720.15 MB

     Estimated static dynamical RAM per process >      63.54 MB

     Estimated max dynamical RAM per process >     783.69 MB

     Estimated total dynamical RAM >       1.53 GB

     The potential is recalculated from file :
     /home/user/workspace/qe_runs/strain_0/conv_out/te0_conv.save/charge-density

     Starting wfcs are   24 randomized atomic wfcs +    4 random wfcs

     Band Structure Calculation
     Davidson diagonalization with overlap

     Computing kpt #:     1  of     7
     total cpu time spent up to now is        3.4 secs

     Computing kpt #:     2  of     7
     total cpu time spent up to now is        4.7 secs

     Computing kpt #:     3  of     7
     total cpu time spent up to now is        6.0 secs

     Computing kpt #:     4  of     7
     total cpu time spent up to now is        7.9 secs

     Computing kpt #:     5  of     7
     total cpu time spent up to now is        9.2 secs

     Computing kpt #:     6  of     7
     total cpu time spent up to now is       10.5 secs

     Computing kpt #:     7  of     7
     total cpu time spent up to now is       11.7 secs

     ethr =  1.00E-06,  avg # of iterations = 34.7

     total cpu time spent up to now is       11.7 secs

     End of band structure calculation

          k = 0.3333 0.5773 0.0000 (  6831 PWs)   bands (ev):

    -6.4959  -6.4959  -4.6585  -4.6554  -4.6554  -4.6438   1.2350   1.4222
     1.4223   1.4371   2.7636   2.7636   2.8602   3.0612   3.0612   3.0906
     3.4473   3.4474   8.7387   8.7798   8.9457   8.9458   9.1933   9.1933
    10.8661  10.8662  11.8679  11.8679

          k = 0.3333 0.5773 0.1504 (  6823 PWs)   bands (ev):

    -6.3915  -6.3860  -5.1335  -5.1284  -4.2692  -4.2587   0.8720   0.9002
     1.2349   1.3818   1.9669   2.0814   3.0159   3.1960   4.0702   4.1331
     4.4584   4.6663   8.0201   8.1663   8.5904   8.6478   8.6579   8.7233
    11.1509  11.2018  11.6233  11.6619

          k = 0.3333 0.5773 0.3007 (  6789 PWs)   bands (ev):

    -6.0894  -6.0799  -5.6422  -5.6320  -4.0304  -4.0245   0.7752   0.7760
     0.8371   0.8765   1.1715   1.2776   4.3697   4.4732   5.3592   5.5691
     5.6228   5.9796   6.5978   6.6935   7.5302   7.6984   7.7861   7.8300
    11.7911  11.8111  12.0031  12.0483

          k = 0.3333 0.5773 0.3759 (  6792 PWs)   bands (ev):

    -5.8793  -5.8793  -5.8724  -5.8652  -3.9947  -3.9947   0.7399   0.7399
     0.8900   0.9433   1.0165   1.0165   4.8286   4.8287   5.8010   5.8010
     6.0500   6.1660   6.1660   6.1910   7.3164   7.3837   7.5464   7.5464
    11.8949  11.8949  12.5479  12.5531

          k = 0.3333 0.5773 0.4511 (  6789 PWs)   bands (ev):

    -6.0894  -6.0799  -5.6422  -5.6320  -4.0304  -4.0245   0.7752   0.7760
     0.8371   0.8765   1.1715   1.2776   4.3697   4.4732   5.3592   5.5691
     5.6228   5.9796   6.5978   6.6935   7.5302   7.6984   7.7861   7.8300
    11.7912  11.8111  12.0031  12.0484

          k = 0.3333 0.5773 0.6014 (  6823 PWs)   bands (ev):

    -6.3915  -6.3860  -5.1335  -5.1284  -4.2692  -4.2587   0.8720   0.9002
     1.2349   1.3818   1.9669   2.0814   3.0159   3.1960   4.0702   4.1331
     4.4584   4.6663   8.0201   8.1663   8.5904   8.6478   8.6579   8.7233
    11.1509  11.2018  11.6233  11.6619

          k = 0.0000 0.0000 0.3759 (  6846 PWs)   bands (ev):

    -6.7675  -6.7675  -6.7645  -6.7645  -2.1724  -2.1724   1.8226   1.8226
     3.1646   3.1646   3.4524   3.4524   4.5468   4.5468   4.7799   4.7799
     5.0604   5.0604   6.4468   6.4468   6.5505   6.5505   6.7771   6.7771
    10.0194  10.0194  11.3060  11.3060

     Writing all to output data dir /home/user/workspace/qe_runs/strain_0/conv_out/te0_conv.save/ :
     XML data file, pseudopotentials, collected wavefunctions

     init_run     :      1.33s CPU      1.72s WALL (       1 calls)
     electrons    :      9.54s CPU      9.79s WALL (       1 calls)

     Called by init_run:
     wfcinit      :      0.00s CPU      0.00s WALL (       1 calls)
     wfcinit:atom :      0.00s CPU      0.01s WALL (       7 calls)
     wfcinit:wfcr :      0.48s CPU      0.50s WALL (       7 calls)
     potinit      :      0.20s CPU      0.22s WALL (       1 calls)
     hinit0       :      0.52s CPU      0.53s WALL (       1 calls)

     Called by electrons:
     c_bands      :      9.54s CPU      9.79s WALL (       1 calls)
     v_of_rho     :      0.08s CPU      0.08s WALL (       1 calls)
     v_h          :      0.01s CPU      0.01s WALL (       1 calls)
     v_xc         :      0.07s CPU      0.07s WALL (       1 calls)
     newd         :      0.58s CPU      0.93s WALL (       1 calls)

     Called by c_bands:
     init_us_2    :      0.00s CPU      0.01s WALL (       7 calls)
     cegterg      :      8.79s CPU      9.01s WALL (      16 calls)

     Called by sum_band:

     Called by *egterg:
     cdiaghg      :      0.21s CPU      0.21s WALL (     250 calls)
     cegterg:over :      0.49s CPU      0.50s WALL (     243 calls)
     cegterg:upda :      0.31s CPU      0.31s WALL (     243 calls)
     cegterg:last :      0.59s CPU      0.59s WALL (     103 calls)
     h_psi        :      7.03s CPU      7.23s WALL (     266 calls)
     s_psi        :      0.39s CPU      0.40s WALL (     266 calls)
     g_psi        :      0.09s CPU      0.09s WALL (     243 calls)

     Called by h_psi:
     h_psi:calbec :      0.49s CPU      0.49s WALL (     266 calls)
     vloc_psi     :      6.12s CPU      6.31s WALL (     266 calls)
                                        0.00s GPU  (     266 calls)
     add_vuspsi   :      0.39s CPU      0.39s WALL (     266 calls)

     General routines
     calbec       :      0.49s CPU      0.49s WALL (     266 calls)
     fft          :      0.19s CPU      0.20s WALL (      19 calls)
     ffts         :      0.11s CPU      0.11s WALL (       4 calls)
     fftw         :      5.46s CPU      5.63s WALL (   12308 calls)
     interpolate  :      0.11s CPU      0.12s WALL (       4 calls)
     davcio       :      0.01s CPU      0.02s WALL (      14 calls)

     Parallel routines

     PWSCF        :     11.12s CPU     11.81s WALL


   This run was terminated on:   7:39:11  20Aug2026            

=------------------------------------------------------------------------------=
   JOB DONE.
=------------------------------------------------------------------------------=
