
     Program PWSCF v.7.5 starts on 20Aug2026 at  7:28: 5 

     This program is part of the open-source Quantum ESPRESSO suite
     for quantum simulation of materials; please cite
         "P. Giannozzi et al., J. Phys.:Condens. Matter 21 395502 (2009);
         "P. Giannozzi et al., J. Phys.:Condens. Matter 29 465901 (2017);
         "P. Giannozzi et al., J. Chem. Phys. 152 154105 (2020);
          URL http://www.quantum-espresso.org", 
     in publications or presentations arising from this work. More details at
     http://www.quantum-espresso.org/quote

     Parallel version (MPI & OpenMP), running on       2 processor cores
     Number of MPI processes:                 2
     Threads/MPI process:                     1

     MPI processes distributed on     1 nodes
     4044 MiB available memory on the printing compute node when the environment starts

     Reading input from scf_conv.in

     Current dimensions of program PWSCF are:
     Max number of different atomic species (ntypx) = 10
     Max number of k-points (npk) =  40000
     Max angular momentum in pseudopotentials (lmaxx) =  4
     file Te.rel-pbe-n-rrkjus_psl.1.0.0.UPF: wavefunction(s)  5S renormalized
     Message from routine setup:
     using ibrav=0 with symmetry is DISCOURAGED, use correct ibrav instead

     R & G space division:  proc/nbgrp/npool/nimage =       2
     Subspace diagonalization in iterative solution of the eigenvalue problem:
     a serial algorithm will be used


     Parallelization info
     --------------------
     sticks:   dense  smooth     PW     G-vecs:    dense   smooth      PW
     Min        1362     684    189                76986    27260    4083
     Max        1363     685    190                76991    27267    4090
     Sum        2725    1369    379               153977    54527    8173

     Using Slab Decomposition



     bravais-lattice index     =            0
     lattice parameter (alat)  =       8.4229  a.u.
     unit-cell volume          =     688.4532 (a.u.)^3
     number of atoms/cell      =            3
     number of atomic types    =            1
     number of electrons       =        18.00
     number of Kohn-Sham states=           26
     kinetic-energy cutoff     =      70.0000  Ry
     charge density cutoff     =     560.0000  Ry
     scf convergence threshold =      1.0E-08
     mixing beta               =       0.4000
     number of iterations used =            8  plain     mixing
     Exchange-correlation= PBE
                           (   1   4   3   4   0   0   0)
     Non magnetic calculation with spin-orbit


     celldm(1)=   8.422887  celldm(2)=   0.000000  celldm(3)=   0.000000
     celldm(4)=   0.000000  celldm(5)=   0.000000  celldm(6)=   0.000000

     crystal axes: (cart. coord. in units of alat)
               a(1) = (   1.000000   0.000000   0.000000 )  
               a(2) = (  -0.500000   0.866108   0.000000 )  
               a(3) = (   0.000000   0.000000   1.330207 )  

     reciprocal axes: (cart. coord. in units 2 pi/alat)
               b(1) = (  1.000000  0.577295 -0.000000 )  
               b(2) = (  0.000000  1.154590  0.000000 )  
               b(3) = (  0.000000 -0.000000  0.751763 )  


     PseudoPot. # 1 for Te read from file:
     /home/user/workspace/qe_runs/pseudo/Te.rel-pbe-n-rrkjus_psl.1.0.0.UPF
     MD5 check sum: 7fd30b6833abd190471e4dcc2367351b
     Pseudo is Ultrasoft + core correction, Zval =  6.0
     Generated using &quot;atomic&quot; code by A. Dal Corso  v.6.3
     Using radial grid of 1245 points, 10 beta functions with: 
                l(1) =   0
                l(2) =   0
                l(3) =   1
                l(4) =   1
                l(5) =   1
                l(6) =   1
                l(7) =   2
                l(8) =   2
                l(9) =   2
               l(10) =   2
     Q(r) pseudized with 0 coefficients 


     atomic species   valence    mass     pseudopotential
     Te                6.00   127.60000     Te( 1.00)

      2 Sym. Ops. (no inversion) found ( 1 have fractional translation)


                                    s                        frac. trans.

      isym =  1     identity                                     

 cryst.   s( 1) = (     1          0          0      )
                  (     0          1          0      )
                  (     0          0          1      )

 cart.    s( 1) = (  1.0000000  0.0000000  0.0000000 )
                  (  0.0000000  1.0000000  0.0000000 )
                  (  0.0000000  0.0000000  1.0000000 )


      isym =  2     180 deg rotation - cart. axis [1,0,0]        

 cryst.   s( 2) = (     1          0          0      )    f =(  0.0000000 )
                  (    -1         -1          0      )       (  0.0000000 )
                  (     0          0         -1      )       (  0.3333334 )

 cart.    s( 2) = (  1.0000000  0.0000000  0.0000000 )    f =(  0.0000000 )
                  (  0.0000000 -1.0000000  0.0000000 )       (  0.0000000 )
                  (  0.0000000  0.0000000 -1.0000000 )       (  0.4434025 )


   Cartesian axes

     site n.     atom                  positions (alat units)
         1        Te     tau(   1) = (   0.2636000   0.0000000   0.4434024  )
         2        Te     tau(   2) = (  -0.1318000   0.2283061   0.8868049  )
         3        Te     tau(   3) = (  -0.1318000  -0.2283061   0.0000000  )

   Crystallographic axes

     site n.     atom                  positions (cryst. coord.)
         1        Te     tau(   1) = (  0.2636000  0.0000000  0.3333333  )
         2        Te     tau(   2) = (  0.0000000  0.2636000  0.6666667  )
         3        Te     tau(   3) = ( -0.2636000 -0.2636000  0.0000000  )

     number of k points=   150  Gaussian smearing, width (Ry)=  0.0100
                       cart. coord. in units 2pi/alat
        k(    1) = (   0.0000000   0.0000000   0.0000000), wk =   0.0019531
        k(    2) = (   0.0000000   0.0000000   0.0939703), wk =   0.0039062
        k(    3) = (   0.0000000   0.0000000   0.1879406), wk =   0.0039062
        k(    4) = (   0.0000000   0.0000000   0.2819109), wk =   0.0039062
        k(    5) = (   0.0000000   0.0000000  -0.3758813), wk =   0.0019531
        k(    6) = (   0.0000000   0.1443238   0.0000000), wk =   0.0039062
        k(    7) = (   0.0000000   0.1443238   0.0939703), wk =   0.0039062
        k(    8) = (   0.0000000   0.1443238   0.1879406), wk =   0.0039062
        k(    9) = (   0.0000000   0.1443238   0.2819109), wk =   0.0039062
        k(   10) = (   0.0000000   0.1443238  -0.3758813), wk =   0.0039062
        k(   11) = (   0.0000000   0.2886476   0.0000000), wk =   0.0039062
        k(   12) = (   0.0000000   0.2886476   0.0939703), wk =   0.0039062
        k(   13) = (   0.0000000   0.2886476   0.1879406), wk =   0.0039062
        k(   14) = (   0.0000000   0.2886476   0.2819109), wk =   0.0039062
        k(   15) = (   0.0000000   0.2886476  -0.3758813), wk =   0.0039062
        k(   16) = (   0.0000000   0.4329714   0.0000000), wk =   0.0039062
        k(   17) = (   0.0000000   0.4329714   0.0939703), wk =   0.0039062
        k(   18) = (   0.0000000   0.4329714   0.1879406), wk =   0.0039062
        k(   19) = (   0.0000000   0.4329714   0.2819109), wk =   0.0039062
        k(   20) = (   0.0000000   0.4329714  -0.3758813), wk =   0.0039062
        k(   21) = (   0.0000000  -0.5772951   0.0000000), wk =   0.0019531
        k(   22) = (   0.0000000  -0.5772951   0.0939703), wk =   0.0039062
        k(   23) = (   0.0000000  -0.5772951   0.1879406), wk =   0.0039062
        k(   24) = (   0.0000000  -0.5772951   0.2819109), wk =   0.0039062
        k(   25) = (   0.0000000  -0.5772951  -0.3758813), wk =   0.0019531
        k(   26) = (   0.1250000   0.0721619   0.0000000), wk =   0.0078125
        k(   27) = (   0.1250000   0.0721619   0.0939703), wk =   0.0078125
        k(   28) = (   0.1250000   0.0721619   0.1879406), wk =   0.0078125
        k(   29) = (   0.1250000   0.0721619   0.2819109), wk =   0.0078125
        k(   30) = (   0.1250000   0.0721619  -0.3758813), wk =   0.0078125
        k(   31) = (   0.1250000   0.2164857   0.0000000), wk =   0.0078125
        k(   32) = (   0.1250000   0.2164857   0.0939703), wk =   0.0078125
        k(   33) = (   0.1250000   0.2164857   0.1879406), wk =   0.0078125
        k(   34) = (   0.1250000   0.2164857   0.2819109), wk =   0.0078125
        k(   35) = (   0.1250000   0.2164857  -0.3758813), wk =   0.0078125
        k(   36) = (   0.1250000   0.3608095   0.0000000), wk =   0.0078125
        k(   37) = (   0.1250000   0.3608095   0.0939703), wk =   0.0078125
        k(   38) = (   0.1250000   0.3608095   0.1879406), wk =   0.0078125
        k(   39) = (   0.1250000   0.3608095   0.2819109), wk =   0.0078125
        k(   40) = (   0.1250000   0.3608095  -0.3758813), wk =   0.0078125
        k(   41) = (   0.1250000   0.5051333   0.0000000), wk =   0.0078125
        k(   42) = (   0.1250000   0.5051333   0.0939703), wk =   0.0078125
        k(   43) = (   0.1250000   0.5051333   0.1879406), wk =   0.0078125
        k(   44) = (   0.1250000   0.5051333   0.2819109), wk =   0.0078125
        k(   45) = (   0.1250000   0.5051333  -0.3758813), wk =   0.0078125
        k(   46) = (   0.2500000   0.1443238   0.0000000), wk =   0.0078125
        k(   47) = (   0.2500000   0.1443238   0.0939703), wk =   0.0078125
        k(   48) = (   0.2500000   0.1443238   0.1879406), wk =   0.0078125
        k(   49) = (   0.2500000   0.1443238   0.2819109), wk =   0.0078125
        k(   50) = (   0.2500000   0.1443238  -0.3758813), wk =   0.0078125
        k(   51) = (   0.2500000   0.2886476   0.0000000), wk =   0.0078125
        k(   52) = (   0.2500000   0.2886476   0.0939703), wk =   0.0078125
        k(   53) = (   0.2500000   0.2886476   0.1879406), wk =   0.0078125
        k(   54) = (   0.2500000   0.2886476   0.2819109), wk =   0.0078125
        k(   55) = (   0.2500000   0.2886476  -0.3758813), wk =   0.0078125
        k(   56) = (   0.2500000   0.4329714   0.0000000), wk =   0.0078125
        k(   57) = (   0.2500000   0.4329714   0.0939703), wk =   0.0078125
        k(   58) = (   0.2500000   0.4329714   0.1879406), wk =   0.0078125
        k(   59) = (   0.2500000   0.4329714   0.2819109), wk =   0.0078125
        k(   60) = (   0.2500000   0.4329714  -0.3758813), wk =   0.0078125
        k(   61) = (   0.2500000   0.5772951   0.0000000), wk =   0.0039062
        k(   62) = (   0.2500000   0.5772951   0.0939703), wk =   0.0078125
        k(   63) = (   0.2500000   0.5772951   0.1879406), wk =   0.0078125
        k(   64) = (   0.2500000   0.5772951   0.2819109), wk =   0.0078125
        k(   65) = (   0.2500000   0.5772951  -0.3758813), wk =   0.0039062
        k(   66) = (   0.2500000   0.0000000   0.0000000), wk =   0.0039062
        k(   67) = (   0.2500000   0.0000000   0.0939703), wk =   0.0078125
        k(   68) = (   0.2500000   0.0000000   0.1879406), wk =   0.0078125
        k(   69) = (   0.2500000   0.0000000   0.2819109), wk =   0.0078125
        k(   70) = (   0.2500000   0.0000000  -0.3758813), wk =   0.0039062
        k(   71) = (   0.3750000   0.2164857   0.0000000), wk =   0.0078125
        k(   72) = (   0.3750000   0.2164857   0.0939703), wk =   0.0078125
        k(   73) = (   0.3750000   0.2164857   0.1879406), wk =   0.0078125
        k(   74) = (   0.3750000   0.2164857   0.2819109), wk =   0.0078125
        k(   75) = (   0.3750000   0.2164857  -0.3758813), wk =   0.0078125
        k(   76) = (   0.3750000   0.3608095   0.0000000), wk =   0.0078125
        k(   77) = (   0.3750000   0.3608095   0.0939703), wk =   0.0078125
        k(   78) = (   0.3750000   0.3608095   0.1879406), wk =   0.0078125
        k(   79) = (   0.3750000   0.3608095   0.2819109), wk =   0.0078125
        k(   80) = (   0.3750000   0.3608095  -0.3758813), wk =   0.0078125
        k(   81) = (   0.3750000   0.5051333   0.0000000), wk =   0.0078125
        k(   82) = (   0.3750000   0.5051333   0.0939703), wk =   0.0078125
        k(   83) = (   0.3750000   0.5051333   0.1879406), wk =   0.0078125
        k(   84) = (   0.3750000   0.5051333   0.2819109), wk =   0.0078125
        k(   85) = (   0.3750000   0.5051333  -0.3758813), wk =   0.0078125
        k(   86) = (   0.3750000  -0.0721619   0.0000000), wk =   0.0078125
        k(   87) = (   0.3750000  -0.0721619   0.0939703), wk =   0.0078125
        k(   88) = (   0.3750000  -0.0721619   0.1879406), wk =   0.0078125
        k(   89) = (   0.3750000  -0.0721619   0.2819109), wk =   0.0078125
        k(   90) = (   0.3750000  -0.0721619  -0.3758813), wk =   0.0078125
        k(   91) = (  -0.5000000  -0.2886476   0.0000000), wk =   0.0039062
        k(   92) = (  -0.5000000  -0.2886476   0.0939703), wk =   0.0078125
        k(   93) = (  -0.5000000  -0.2886476   0.1879406), wk =   0.0078125
        k(   94) = (  -0.5000000  -0.2886476   0.2819109), wk =   0.0078125
        k(   95) = (  -0.5000000  -0.2886476  -0.3758813), wk =   0.0039062
        k(   96) = (  -0.5000000  -0.1443238   0.0000000), wk =   0.0078125
        k(   97) = (  -0.5000000  -0.1443238   0.0939703), wk =   0.0078125
        k(   98) = (  -0.5000000  -0.1443238   0.1879406), wk =   0.0078125
        k(   99) = (  -0.5000000  -0.1443238   0.2819109), wk =   0.0078125
        k(  100) = (  -0.5000000  -0.1443238  -0.3758813), wk =   0.0078125
        k(  101) = (  -0.5000000   0.0000000   0.0000000), wk =   0.0039062
        k(  102) = (  -0.5000000   0.0000000   0.0939703), wk =   0.0078125
        k(  103) = (  -0.5000000   0.0000000   0.1879406), wk =   0.0078125
        k(  104) = (  -0.5000000   0.0000000   0.2819109), wk =   0.0078125
        k(  105) = (  -0.5000000   0.0000000  -0.3758813), wk =   0.0039062
        k(  106) = (   0.0000000   0.1443238  -0.0939703), wk =   0.0039062
        k(  107) = (   0.0000000   0.1443238  -0.1879406), wk =   0.0039062
        k(  108) = (   0.0000000   0.1443238  -0.2819109), wk =   0.0039062
        k(  109) = (   0.0000000   0.2886476  -0.0939703), wk =   0.0039062
        k(  110) = (   0.0000000   0.2886476  -0.1879406), wk =   0.0039062
        k(  111) = (   0.0000000   0.2886476  -0.2819109), wk =   0.0039062
        k(  112) = (   0.0000000   0.4329714  -0.0939703), wk =   0.0039062
        k(  113) = (   0.0000000   0.4329714  -0.1879406), wk =   0.0039062
        k(  114) = (   0.0000000   0.4329714  -0.2819109), wk =   0.0039062
        k(  115) = (  -0.1250000   0.0721619  -0.0939703), wk =   0.0078125
        k(  116) = (  -0.1250000   0.0721619  -0.1879406), wk =   0.0078125
        k(  117) = (  -0.1250000   0.0721619  -0.2819109), wk =   0.0078125
        k(  118) = (  -0.1250000   0.2164857  -0.0939703), wk =   0.0078125
        k(  119) = (  -0.1250000   0.2164857  -0.1879406), wk =   0.0078125
        k(  120) = (  -0.1250000   0.2164857  -0.2819109), wk =   0.0078125
        k(  121) = (  -0.1250000   0.3608095  -0.0939703), wk =   0.0078125
        k(  122) = (  -0.1250000   0.3608095  -0.1879406), wk =   0.0078125
        k(  123) = (  -0.1250000   0.3608095  -0.2819109), wk =   0.0078125
        k(  124) = (  -0.1250000   0.5051333  -0.0939703), wk =   0.0078125
        k(  125) = (  -0.1250000   0.5051333  -0.1879406), wk =   0.0078125
        k(  126) = (  -0.1250000   0.5051333  -0.2819109), wk =   0.0078125
        k(  127) = (  -0.2500000   0.1443238  -0.0939703), wk =   0.0078125
        k(  128) = (  -0.2500000   0.1443238  -0.1879406), wk =   0.0078125
        k(  129) = (  -0.2500000   0.1443238  -0.2819109), wk =   0.0078125
        k(  130) = (  -0.2500000   0.2886476  -0.0939703), wk =   0.0078125
        k(  131) = (  -0.2500000   0.2886476  -0.1879406), wk =   0.0078125
        k(  132) = (  -0.2500000   0.2886476  -0.2819109), wk =   0.0078125
        k(  133) = (  -0.2500000   0.4329714  -0.0939703), wk =   0.0078125
        k(  134) = (  -0.2500000   0.4329714  -0.1879406), wk =   0.0078125
        k(  135) = (  -0.2500000   0.4329714  -0.2819109), wk =   0.0078125
        k(  136) = (  -0.3750000   0.2164857  -0.0939703), wk =   0.0078125
        k(  137) = (  -0.3750000   0.2164857  -0.1879406), wk =   0.0078125
        k(  138) = (  -0.3750000   0.2164857  -0.2819109), wk =   0.0078125
        k(  139) = (  -0.3750000   0.3608095  -0.0939703), wk =   0.0078125
        k(  140) = (  -0.3750000   0.3608095  -0.1879406), wk =   0.0078125
        k(  141) = (  -0.3750000   0.3608095  -0.2819109), wk =   0.0078125
        k(  142) = (  -0.3750000   0.5051333  -0.0939703), wk =   0.0078125
        k(  143) = (  -0.3750000   0.5051333  -0.1879406), wk =   0.0078125
        k(  144) = (  -0.3750000   0.5051333  -0.2819109), wk =   0.0078125
        k(  145) = (  -0.3750000  -0.0721619  -0.0939703), wk =   0.0078125
        k(  146) = (  -0.3750000  -0.0721619  -0.1879406), wk =   0.0078125
        k(  147) = (  -0.3750000  -0.0721619  -0.2819109), wk =   0.0078125
        k(  148) = (   0.5000000  -0.1443238  -0.0939703), wk =   0.0078125
        k(  149) = (   0.5000000  -0.1443238  -0.1879406), wk =   0.0078125
        k(  150) = (   0.5000000  -0.1443238  -0.2819109), wk =   0.0078125

                       cryst. coord.
        k(    1) = (   0.0000000   0.0000000   0.0000000), wk =   0.0019531
        k(    2) = (   0.0000000   0.0000000   0.1250000), wk =   0.0039062
        k(    3) = (   0.0000000   0.0000000   0.2500000), wk =   0.0039062
        k(    4) = (   0.0000000   0.0000000   0.3750000), wk =   0.0039062
        k(    5) = (   0.0000000   0.0000000  -0.5000000), wk =   0.0019531
        k(    6) = (   0.0000000   0.1250000   0.0000000), wk =   0.0039062
        k(    7) = (   0.0000000   0.1250000   0.1250000), wk =   0.0039062
        k(    8) = (   0.0000000   0.1250000   0.2500000), wk =   0.0039062
        k(    9) = (   0.0000000   0.1250000   0.3750000), wk =   0.0039062
        k(   10) = (   0.0000000   0.1250000  -0.5000000), wk =   0.0039062
        k(   11) = (   0.0000000   0.2500000   0.0000000), wk =   0.0039062
        k(   12) = (   0.0000000   0.2500000   0.1250000), wk =   0.0039062
        k(   13) = (   0.0000000   0.2500000   0.2500000), wk =   0.0039062
        k(   14) = (   0.0000000   0.2500000   0.3750000), wk =   0.0039062
        k(   15) = (   0.0000000   0.2500000  -0.5000000), wk =   0.0039062
        k(   16) = (   0.0000000   0.3750000   0.0000000), wk =   0.0039062
        k(   17) = (   0.0000000   0.3750000   0.1250000), wk =   0.0039062
        k(   18) = (   0.0000000   0.3750000   0.2500000), wk =   0.0039062
        k(   19) = (   0.0000000   0.3750000   0.3750000), wk =   0.0039062
        k(   20) = (   0.0000000   0.3750000  -0.5000000), wk =   0.0039062
        k(   21) = (   0.0000000  -0.5000000   0.0000000), wk =   0.0019531
        k(   22) = (   0.0000000  -0.5000000   0.1250000), wk =   0.0039062
        k(   23) = (   0.0000000  -0.5000000   0.2500000), wk =   0.0039062
        k(   24) = (   0.0000000  -0.5000000   0.3750000), wk =   0.0039062
        k(   25) = (   0.0000000  -0.5000000  -0.5000000), wk =   0.0019531
        k(   26) = (   0.1250000   0.0000000   0.0000000), wk =   0.0078125
        k(   27) = (   0.1250000   0.0000000   0.1250000), wk =   0.0078125
        k(   28) = (   0.1250000   0.0000000   0.2500000), wk =   0.0078125
        k(   29) = (   0.1250000   0.0000000   0.3750000), wk =   0.0078125
        k(   30) = (   0.1250000   0.0000000  -0.5000000), wk =   0.0078125
        k(   31) = (   0.1250000   0.1250000   0.0000000), wk =   0.0078125
        k(   32) = (   0.1250000   0.1250000   0.1250000), wk =   0.0078125
        k(   33) = (   0.1250000   0.1250000   0.2500000), wk =   0.0078125
        k(   34) = (   0.1250000   0.1250000   0.3750000), wk =   0.0078125
        k(   35) = (   0.1250000   0.1250000  -0.5000000), wk =   0.0078125
        k(   36) = (   0.1250000   0.2500000   0.0000000), wk =   0.0078125
        k(   37) = (   0.1250000   0.2500000   0.1250000), wk =   0.0078125
        k(   38) = (   0.1250000   0.2500000   0.2500000), wk =   0.0078125
        k(   39) = (   0.1250000   0.2500000   0.3750000), wk =   0.0078125
        k(   40) = (   0.1250000   0.2500000  -0.5000000), wk =   0.0078125
        k(   41) = (   0.1250000   0.3750000   0.0000000), wk =   0.0078125
        k(   42) = (   0.1250000   0.3750000   0.1250000), wk =   0.0078125
        k(   43) = (   0.1250000   0.3750000   0.2500000), wk =   0.0078125
        k(   44) = (   0.1250000   0.3750000   0.3750000), wk =   0.0078125
        k(   45) = (   0.1250000   0.3750000  -0.5000000), wk =   0.0078125
        k(   46) = (   0.2500000   0.0000000   0.0000000), wk =   0.0078125
        k(   47) = (   0.2500000   0.0000000   0.1250000), wk =   0.0078125
        k(   48) = (   0.2500000   0.0000000   0.2500000), wk =   0.0078125
        k(   49) = (   0.2500000   0.0000000   0.3750000), wk =   0.0078125
        k(   50) = (   0.2500000   0.0000000  -0.5000000), wk =   0.0078125
        k(   51) = (   0.2500000   0.1250000   0.0000000), wk =   0.0078125
        k(   52) = (   0.2500000   0.1250000   0.1250000), wk =   0.0078125
        k(   53) = (   0.2500000   0.1250000   0.2500000), wk =   0.0078125
        k(   54) = (   0.2500000   0.1250000   0.3750000), wk =   0.0078125
        k(   55) = (   0.2500000   0.1250000  -0.5000000), wk =   0.0078125
        k(   56) = (   0.2500000   0.2500000   0.0000000), wk =   0.0078125
        k(   57) = (   0.2500000   0.2500000   0.1250000), wk =   0.0078125
        k(   58) = (   0.2500000   0.2500000   0.2500000), wk =   0.0078125
        k(   59) = (   0.2500000   0.2500000   0.3750000), wk =   0.0078125
        k(   60) = (   0.2500000   0.2500000  -0.5000000), wk =   0.0078125
        k(   61) = (   0.2500000   0.3750000   0.0000000), wk =   0.0039062
        k(   62) = (   0.2500000   0.3750000   0.1250000), wk =   0.0078125
        k(   63) = (   0.2500000   0.3750000   0.2500000), wk =   0.0078125
        k(   64) = (   0.2500000   0.3750000   0.3750000), wk =   0.0078125
        k(   65) = (   0.2500000   0.3750000  -0.5000000), wk =   0.0039062
        k(   66) = (   0.2500000  -0.1250000   0.0000000), wk =   0.0039062
        k(   67) = (   0.2500000  -0.1250000   0.1250000), wk =   0.0078125
        k(   68) = (   0.2500000  -0.1250000   0.2500000), wk =   0.0078125
        k(   69) = (   0.2500000  -0.1250000   0.3750000), wk =   0.0078125
        k(   70) = (   0.2500000  -0.1250000  -0.5000000), wk =   0.0039062
        k(   71) = (   0.3750000   0.0000000   0.0000000), wk =   0.0078125
        k(   72) = (   0.3750000   0.0000000   0.1250000), wk =   0.0078125
        k(   73) = (   0.3750000   0.0000000   0.2500000), wk =   0.0078125
        k(   74) = (   0.3750000   0.0000000   0.3750000), wk =   0.0078125
        k(   75) = (   0.3750000   0.0000000  -0.5000000), wk =   0.0078125
        k(   76) = (   0.3750000   0.1250000   0.0000000), wk =   0.0078125
        k(   77) = (   0.3750000   0.1250000   0.1250000), wk =   0.0078125
        k(   78) = (   0.3750000   0.1250000   0.2500000), wk =   0.0078125
        k(   79) = (   0.3750000   0.1250000   0.3750000), wk =   0.0078125
        k(   80) = (   0.3750000   0.1250000  -0.5000000), wk =   0.0078125
        k(   81) = (   0.3750000   0.2500000   0.0000000), wk =   0.0078125
        k(   82) = (   0.3750000   0.2500000   0.1250000), wk =   0.0078125
        k(   83) = (   0.3750000   0.2500000   0.2500000), wk =   0.0078125
        k(   84) = (   0.3750000   0.2500000   0.3750000), wk =   0.0078125
        k(   85) = (   0.3750000   0.2500000  -0.5000000), wk =   0.0078125
        k(   86) = (   0.3750000  -0.2500000   0.0000000), wk =   0.0078125
        k(   87) = (   0.3750000  -0.2500000   0.1250000), wk =   0.0078125
        k(   88) = (   0.3750000  -0.2500000   0.2500000), wk =   0.0078125
        k(   89) = (   0.3750000  -0.2500000   0.3750000), wk =   0.0078125
        k(   90) = (   0.3750000  -0.2500000  -0.5000000), wk =   0.0078125
        k(   91) = (  -0.5000000   0.0000000   0.0000000), wk =   0.0039062
        k(   92) = (  -0.5000000   0.0000000   0.1250000), wk =   0.0078125
        k(   93) = (  -0.5000000   0.0000000   0.2500000), wk =   0.0078125
        k(   94) = (  -0.5000000   0.0000000   0.3750000), wk =   0.0078125
        k(   95) = (  -0.5000000   0.0000000  -0.5000000), wk =   0.0039062
        k(   96) = (  -0.5000000   0.1250000   0.0000000), wk =   0.0078125
        k(   97) = (  -0.5000000   0.1250000   0.1250000), wk =   0.0078125
        k(   98) = (  -0.5000000   0.1250000   0.2500000), wk =   0.0078125
        k(   99) = (  -0.5000000   0.1250000   0.3750000), wk =   0.0078125
        k(  100) = (  -0.5000000   0.1250000  -0.5000000), wk =   0.0078125
        k(  101) = (  -0.5000000   0.2500000   0.0000000), wk =   0.0039062
        k(  102) = (  -0.5000000   0.2500000   0.1250000), wk =   0.0078125
        k(  103) = (  -0.5000000   0.2500000   0.2500000), wk =   0.0078125
        k(  104) = (  -0.5000000   0.2500000   0.3750000), wk =   0.0078125
        k(  105) = (  -0.5000000   0.2500000  -0.5000000), wk =   0.0039062
        k(  106) = (   0.0000000   0.1250000  -0.1250000), wk =   0.0039062
        k(  107) = (   0.0000000   0.1250000  -0.2500000), wk =   0.0039062
        k(  108) = (   0.0000000   0.1250000  -0.3750000), wk =   0.0039062
        k(  109) = (   0.0000000   0.2500000  -0.1250000), wk =   0.0039062
        k(  110) = (   0.0000000   0.2500000  -0.2500000), wk =   0.0039062
        k(  111) = (   0.0000000   0.2500000  -0.3750000), wk =   0.0039062
        k(  112) = (   0.0000000   0.3750000  -0.1250000), wk =   0.0039062
        k(  113) = (   0.0000000   0.3750000  -0.2500000), wk =   0.0039062
        k(  114) = (   0.0000000   0.3750000  -0.3750000), wk =   0.0039062
        k(  115) = (  -0.1250000   0.1250000  -0.1250000), wk =   0.0078125
        k(  116) = (  -0.1250000   0.1250000  -0.2500000), wk =   0.0078125
        k(  117) = (  -0.1250000   0.1250000  -0.3750000), wk =   0.0078125
        k(  118) = (  -0.1250000   0.2500000  -0.1250000), wk =   0.0078125
        k(  119) = (  -0.1250000   0.2500000  -0.2500000), wk =   0.0078125
        k(  120) = (  -0.1250000   0.2500000  -0.3750000), wk =   0.0078125
        k(  121) = (  -0.1250000   0.3750000  -0.1250000), wk =   0.0078125
        k(  122) = (  -0.1250000   0.3750000  -0.2500000), wk =   0.0078125
        k(  123) = (  -0.1250000   0.3750000  -0.3750000), wk =   0.0078125
        k(  124) = (  -0.1250000   0.5000000  -0.1250000), wk =   0.0078125
        k(  125) = (  -0.1250000   0.5000000  -0.2500000), wk =   0.0078125
        k(  126) = (  -0.1250000   0.5000000  -0.3750000), wk =   0.0078125
        k(  127) = (  -0.2500000   0.2500000  -0.1250000), wk =   0.0078125
        k(  128) = (  -0.2500000   0.2500000  -0.2500000), wk =   0.0078125
        k(  129) = (  -0.2500000   0.2500000  -0.3750000), wk =   0.0078125
        k(  130) = (  -0.2500000   0.3750000  -0.1250000), wk =   0.0078125
        k(  131) = (  -0.2500000   0.3750000  -0.2500000), wk =   0.0078125
        k(  132) = (  -0.2500000   0.3750000  -0.3750000), wk =   0.0078125
        k(  133) = (  -0.2500000   0.5000000  -0.1250000), wk =   0.0078125
        k(  134) = (  -0.2500000   0.5000000  -0.2500000), wk =   0.0078125
        k(  135) = (  -0.2500000   0.5000000  -0.3750000), wk =   0.0078125
        k(  136) = (  -0.3750000   0.3750000  -0.1250000), wk =   0.0078125
        k(  137) = (  -0.3750000   0.3750000  -0.2500000), wk =   0.0078125
        k(  138) = (  -0.3750000   0.3750000  -0.3750000), wk =   0.0078125
        k(  139) = (  -0.3750000   0.5000000  -0.1250000), wk =   0.0078125
        k(  140) = (  -0.3750000   0.5000000  -0.2500000), wk =   0.0078125
        k(  141) = (  -0.3750000   0.5000000  -0.3750000), wk =   0.0078125
        k(  142) = (  -0.3750000   0.6250000  -0.1250000), wk =   0.0078125
        k(  143) = (  -0.3750000   0.6250000  -0.2500000), wk =   0.0078125
        k(  144) = (  -0.3750000   0.6250000  -0.3750000), wk =   0.0078125
        k(  145) = (  -0.3750000   0.1250000  -0.1250000), wk =   0.0078125
        k(  146) = (  -0.3750000   0.1250000  -0.2500000), wk =   0.0078125
        k(  147) = (  -0.3750000   0.1250000  -0.3750000), wk =   0.0078125
        k(  148) = (   0.5000000  -0.3750000  -0.1250000), wk =   0.0078125
        k(  149) = (   0.5000000  -0.3750000  -0.2500000), wk =   0.0078125
        k(  150) = (   0.5000000  -0.3750000  -0.3750000), wk =   0.0078125

     Dense  grid:   153977 G-vectors     FFT dimensions: (  64,  64,  90)

     Smooth grid:    54527 G-vectors     FFT dimensions: (  45,  45,  60)

     Dynamical RAM for                 wfc:       2.70 MB

     Dynamical RAM for     wfc (w. buffer):     407.84 MB

     Dynamical RAM for           str. fact:       1.17 MB

     Dynamical RAM for           local pot:       0.00 MB

     Dynamical RAM for          nlocal pot:       5.30 MB

     Dynamical RAM for                qrad:       4.97 MB

     Dynamical RAM for          rho,v,vnew:      30.97 MB

     Dynamical RAM for               rhoin:      10.32 MB

     Dynamical RAM for            rho*nmix:      75.19 MB

     Dynamical RAM for           G-vectors:       4.61 MB

     Dynamical RAM for          h,s,v(r/c):       0.12 MB

     Dynamical RAM for          <psi|beta>:       0.08 MB

     Dynamical RAM for                 psi:       5.40 MB

     Dynamical RAM for                hpsi:       5.40 MB

     Dynamical RAM for                spsi:       5.40 MB

     Dynamical RAM for      wfcinit/wfcrot:       4.07 MB

     Dynamical RAM for           addusdens:     720.15 MB

     Dynamical RAM for         addusstress:     737.77 MB

     Estimated static dynamical RAM per process >     478.80 MB

     Estimated max dynamical RAM per process >       1.26 GB

     Estimated total dynamical RAM >       2.52 GB

     Initial potential from superposition of free atoms

     starting charge      17.9993, renormalised to      18.0000
     Starting wfcs are   24 randomized atomic wfcs +    2 random wfcs

     total cpu time spent up to now is       12.7 secs

     per-process dynamical memory:   516.1 Mb

     Self-consistent Calculation

     iteration #  1     ecut=    70.00 Ry     beta= 0.40
     Davidson diagonalization with overlap

---- Real-time Memory Report at c_bands before calling an iterative solver
           817 MiB given to the printing process from OS
           510 MiB allocation reported by mallinfo(arena+hblkhd)
          3070 MiB available memory on the node where the printing process lives
------------------
     c_bands:  2 eigenvalues not converged
     c_bands:  2 eigenvalues not converged
     c_bands:  2 eigenvalues not converged
     c_bands:  1 eigenvalues not converged
     c_bands:  2 eigenvalues not converged
     c_bands:  1 eigenvalues not converged
     c_bands:  2 eigenvalues not converged
     c_bands:  2 eigenvalues not converged
     c_bands:  1 eigenvalues not converged
     c_bands:  2 eigenvalues not converged
     c_bands:  2 eigenvalues not converged
     c_bands:  1 eigenvalues not converged
     c_bands:  2 eigenvalues not converged
     c_bands:  2 eigenvalues not converged
     c_bands:  1 eigenvalues not converged
     c_bands:  2 eigenvalues not converged
     c_bands:  2 eigenvalues not converged
     c_bands:  2 eigenvalues not converged
     c_bands:  1 eigenvalues not converged
     c_bands:  2 eigenvalues not converged
     c_bands:  2 eigenvalues not converged
     c_bands:  2 eigenvalues not converged
     c_bands:  2 eigenvalues not converged
     c_bands:  2 eigenvalues not converged
     c_bands:  2 eigenvalues not converged
     c_bands:  2 eigenvalues not converged
     c_bands:  1 eigenvalues not converged
     c_bands:  2 eigenvalues not converged
     c_bands:  2 eigenvalues not converged
     c_bands:  2 eigenvalues not converged
     c_bands:  2 eigenvalues not converged
     c_bands:  1 eigenvalues not converged
     c_bands:  1 eigenvalues not converged
     c_bands:  2 eigenvalues not converged
     c_bands:  2 eigenvalues not converged
     c_bands:  1 eigenvalues not converged
     c_bands:  2 eigenvalues not converged
     c_bands:  2 eigenvalues not converged
     c_bands:  2 eigenvalues not converged
     c_bands:  2 eigenvalues not converged
     c_bands:  1 eigenvalues not converged
     c_bands:  2 eigenvalues not converged
     c_bands:  2 eigenvalues not converged
     c_bands:  1 eigenvalues not converged
     c_bands:  2 eigenvalues not converged
     c_bands:  2 eigenvalues not converged
     c_bands:  1 eigenvalues not converged
     c_bands:  2 eigenvalues not converged
     c_bands:  1 eigenvalues not converged
     c_bands:  2 eigenvalues not converged
     c_bands:  1 eigenvalues not converged
     c_bands:  1 eigenvalues not converged
     c_bands:  1 eigenvalues not converged
     c_bands:  2 eigenvalues not converged
     c_bands:  1 eigenvalues not converged
     c_bands:  2 eigenvalues not converged
     c_bands:  2 eigenvalues not converged
     c_bands:  2 eigenvalues not converged
     c_bands:  1 eigenvalues not converged
     c_bands:  2 eigenvalues not converged
     c_bands:  2 eigenvalues not converged
     c_bands:  2 eigenvalues not converged
     c_bands:  2 eigenvalues not converged
     c_bands:  1 eigenvalues not converged
     c_bands:  2 eigenvalues not converged
     c_bands:  1 eigenvalues not converged
     c_bands:  1 eigenvalues not converged
     c_bands:  1 eigenvalues not converged
     c_bands:  2 eigenvalues not converged
     c_bands:  2 eigenvalues not converged
     c_bands:  2 eigenvalues not converged
     c_bands:  2 eigenvalues not converged
     c_bands:  2 eigenvalues not converged
     c_bands:  2 eigenvalues not converged
     c_bands:  2 eigenvalues not converged
     c_bands:  1 eigenvalues not converged
     ethr =  1.00E-05,  avg # of iterations = 18.9

     total cpu time spent up to now is      137.9 secs

     total energy              =     -85.64373873 Ry
     estimated scf accuracy    <       0.01529052 Ry

     iteration #  2     ecut=    70.00 Ry     beta= 0.40
     Davidson diagonalization with overlap

---- Real-time Memory Report at c_bands before calling an iterative solver
          1266 MiB given to the printing process from OS
           543 MiB allocation reported by mallinfo(arena+hblkhd)
          2989 MiB available memory on the node where the printing process lives
------------------
     ethr =  8.49E-05,  avg # of iterations =  1.1

     total cpu time spent up to now is      173.0 secs

     total energy              =     -85.64353177 Ry
     estimated scf accuracy    <       0.00451252 Ry

     iteration #  3     ecut=    70.00 Ry     beta= 0.40
     Davidson diagonalization with overlap

---- Real-time Memory Report at c_bands before calling an iterative solver
          1269 MiB given to the printing process from OS
           547 MiB allocation reported by mallinfo(arena+hblkhd)
          2982 MiB available memory on the node where the printing process lives
------------------
     ethr =  2.51E-05,  avg # of iterations =  1.0

     total cpu time spent up to now is      207.9 secs

     total energy              =     -85.64377441 Ry
     estimated scf accuracy    <       0.00018493 Ry

     iteration #  4     ecut=    70.00 Ry     beta= 0.40
     Davidson diagonalization with overlap

---- Real-time Memory Report at c_bands before calling an iterative solver
          1273 MiB given to the printing process from OS
           550 MiB allocation reported by mallinfo(arena+hblkhd)
          2975 MiB available memory on the node where the printing process lives
------------------
     c_bands:  1 eigenvalues not converged
     c_bands:  1 eigenvalues not converged
     ethr =  1.03E-06,  avg # of iterations =  5.1

     total cpu time spent up to now is      257.0 secs

     total energy              =     -85.64384007 Ry
     estimated scf accuracy    <       0.00000660 Ry

     iteration #  5     ecut=    70.00 Ry     beta= 0.40
     Davidson diagonalization with overlap

---- Real-time Memory Report at c_bands before calling an iterative solver
          1276 MiB given to the printing process from OS
           553 MiB allocation reported by mallinfo(arena+hblkhd)
          2969 MiB available memory on the node where the printing process lives
------------------
     ethr =  3.67E-08,  avg # of iterations =  4.1

     total cpu time spent up to now is      306.2 secs

     total energy              =     -85.64384370 Ry
     estimated scf accuracy    <       0.00000203 Ry

     iteration #  6     ecut=    70.00 Ry     beta= 0.40
     Davidson diagonalization with overlap

---- Real-time Memory Report at c_bands before calling an iterative solver
          1279 MiB given to the printing process from OS
           557 MiB allocation reported by mallinfo(arena+hblkhd)
          2962 MiB available memory on the node where the printing process lives
------------------
     ethr =  1.13E-08,  avg # of iterations =  2.0

     total cpu time spent up to now is      347.3 secs

     total energy              =     -85.64384397 Ry
     estimated scf accuracy    <       0.00000012 Ry

     iteration #  7     ecut=    70.00 Ry     beta= 0.40
     Davidson diagonalization with overlap

---- Real-time Memory Report at c_bands before calling an iterative solver
          1283 MiB given to the printing process from OS
           560 MiB allocation reported by mallinfo(arena+hblkhd)
          2955 MiB available memory on the node where the printing process lives
------------------
     ethr =  6.50E-10,  avg # of iterations =  2.7

     total cpu time spent up to now is      391.0 secs

     total energy              =     -85.64384400 Ry
     estimated scf accuracy    <       0.00000002 Ry

     iteration #  8     ecut=    70.00 Ry     beta= 0.40
     Davidson diagonalization with overlap

---- Real-time Memory Report at c_bands before calling an iterative solver
          1286 MiB given to the printing process from OS
           563 MiB allocation reported by mallinfo(arena+hblkhd)
          2949 MiB available memory on the node where the printing process lives
------------------
     ethr =  9.82E-11,  avg # of iterations =  3.1

     total cpu time spent up to now is      437.0 secs

     End of self-consistent calculation

          k = 0.0000 0.0000 0.0000 (  6809 PWs)   bands (ev):

    -7.6616  -7.6616  -4.3301  -4.3301  -4.3287  -4.3287   2.7397   2.7397
     2.9395   2.9395   3.3732   3.3732   4.3272   4.3272   4.3746   4.3746
     5.2375   5.2375   6.6534   6.6534   7.2710   7.2710   7.8028   7.8028
    10.9669  10.9683

     occupation numbers 
     1.0000   1.0000   1.0000   1.0000   1.0000   1.0000   1.0000   1.0000
     1.0000   1.0000   1.0000   1.0000   1.0000   1.0000   1.0000   1.0000
     1.0000   1.0000   0.0000   0.0000   0.0000   0.0000   0.0000   0.0000
     0.0000   0.0000

          k = 0.0000 0.0000 0.0940 (  6792 PWs)   bands (ev):

    -7.6052  -7.6043  -5.0422  -5.0395  -3.5997  -3.5990   2.5967   2.6394
     2.8647   3.1390   3.1441   3.5822   4.2799   4.3711   4.4371   4.4638
     5.1806   5.2598   6.5771   6.5976   7.1250   7.1907   7.6346   7.6440
    10.7437  10.7787

     occupation numbers 
     1.0000   1.0000   1.0000   1.0000   1.0000   1.0000   1.0000   1.0000
     1.0000   1.0000   1.0000   1.0000   1.0000   1.0000   1.0000   1.0000
     1.0000   1.0000   0.0001   0.0000   0.0000   0.0000   0.0000   0.0000
     0.0000   0.0000

          k = 0.0000 0.0000 0.1879 (  6840 PWs)   bands (ev):

    -7.4357  -7.4339  -5.6993  -5.6960  -2.9147  -2.9119   2.2776   2.3179
     3.0314   3.0505   3.2285   3.6720   4.3324   4.4531   4.5200   4.6586
     5.0830   5.2464   6.4482   6.4792   6.8531   6.9800   7.2553   7.2929
    10.4068  10.4368

     occupation numbers 
     1.0000   1.0000   1.0000   1.0000   1.0000   1.0000   1.0000   1.0000
     1.0000   1.0000   1.0000   1.0000   1.0000   1.0000   1.0000   1.0000
     1.0000   1.0000   0.0086   0.0034   0.0000   0.0000   0.0000   0.0000
     0.0000   0.0000

          k = 0.0000 0.0000 0.2819 (  6822 PWs)   bands (ev):

    -7.1552  -7.1527  -6.2792  -6.2758  -2.3842  -2.3810   1.9510   1.9858
     3.0872   3.2255   3.2383   3.6172   4.4462   4.5722   4.6054   4.8728
     4.9451   5.1855   6.4092   6.4124   6.6011   6.8036   6.8535   6.9566
    10.1216  10.1346

     occupation numbers 
     1.0000   1.0000   1.0000   1.0000   1.0000   1.0000   1.0000   1.0000
     1.0000   1.0000   1.0000   1.0000   1.0000   1.0000   1.0000   1.0000
     1.0000   1.0000   0.0240   0.0222   0.0000   0.0000   0.0000   0.0000
     0.0000   0.0000

          k = 0.0000 0.0000-0.3759 (  6846 PWs)   bands (ev):

    -6.7676  -6.7676  -6.7646  -6.7646  -2.1726  -2.1726   1.8225   1.8225
     3.1645   3.1645   3.4523   3.4523   4.5468   4.5468   4.7799   4.7799
     5.0604   5.0604   6.4468   6.4468   6.5504   6.5504   6.7770   6.7770
    10.0194  10.0195

     occupation numbers 
     1.0000   1.0000   1.0000   1.0000   1.0000   1.0000   1.0000   1.0000
     1.0000   1.0000   1.0000   1.0000   1.0000   1.0000   1.0000   1.0000
     1.0000   1.0000   0.0090   0.0090   0.0003   0.0003   0.0000   0.0000
     0.0000   0.0000

          k = 0.0000 0.1443 0.0000 (  6811 PWs)   bands (ev):

    -7.5592  -7.5589  -4.3635  -4.3589  -4.3004  -4.2969   2.0351   2.1553
     2.5109   2.6611   2.9315   3.1887   4.4587   4.6690   4.8492   4.9682
     5.2867   5.3492   6.6439   6.6815   7.0351   7.0809   7.5924   7.6883
    10.6658  10.7052

     occupation numbers 
     1.0000   1.0000   1.0000   1.0000   1.0000   1.0000   1.0000   1.0000
     1.0000   1.0000   1.0000   1.0000   1.0000   1.0000   1.0000   1.0000
     1.0000   1.0000   0.0000   0.0000   0.0000   0.0000   0.0000   0.0000
     0.0000   0.0000

          k = 0.0000 0.1443 0.0940 (  6810 PWs)   bands (ev):

    -7.5031  -7.5021  -5.0147  -5.0119  -3.6382  -3.6368   2.0915   2.2406
     2.2725   2.4535   2.9946   3.2229   4.5921   4.7612   4.8754   5.0061
     5.3070   5.3456   6.5914   6.6093   6.8742   6.9674   7.5033   7.5619
    10.3164  10.3352

     occupation numbers 
     1.0000   1.0000   1.0000   1.0000   1.0000   1.0000   1.0000   1.0000
     1.0000   1.0000   1.0000   1.0000   1.0000   1.0000   1.0000   1.0000
     1.0000   1.0000   0.0001   0.0000   0.0000   0.0000   0.0000   0.0000
     0.0000   0.0000

          k = 0.0000 0.1443 0.1879 (  6817 PWs)   bands (ev):

    -7.3358  -7.3338  -5.6452  -5.6416  -3.0190  -3.0154   1.9983   2.0436
     2.3791   2.4838   3.0682   3.2929   4.6060   4.7204   4.8115   4.8725
     5.0081   5.1281   6.6267   6.6748   6.7303   6.8580   7.5725   7.5922
    10.1416  10.1641

     occupation numbers 
     1.0000   1.0000   1.0000   1.0000   1.0000   1.0000   1.0000   1.0000
     1.0000   1.0000   1.0000   1.0000   1.0000   1.0000   1.0000   1.0000
     1.0000   1.0000   0.0000   0.0000   0.0000   0.0000   0.0000   0.0000
     0.0000   0.0000

          k = 0.0000 0.1443 0.2819 (  6800 PWs)   bands (ev):

    -7.0595  -7.0568  -6.2069  -6.2032  -2.5634  -2.5598   1.7978   1.8620
     2.6053   2.7790   3.1076   3.3375   4.3671   4.4667   4.5859   4.6572
     4.8467   4.9836   6.5908   6.6676   6.8679   6.9700   7.6115   7.6190
    10.1695  10.1898

     occupation numbers 
     1.0000   1.0000   1.0000   1.0000   1.0000   1.0000   1.0000   1.0000
     1.0000   1.0000   1.0000   1.0000   1.0000   1.0000   1.0000   1.0000
     1.0000   1.0000   0.0001   0.0000   0.0000   0.0000   0.0000   0.0000
     0.0000   0.0000

          k = 0.0000 0.1443-0.3759 (  6812 PWs)   bands (ev):

    -6.6905  -6.6890  -6.6691  -6.6681  -2.3972  -2.3967   1.7452   1.8027
     2.8761   3.0546   3.1439   3.2597   4.0323   4.2347   4.4020   4.5582
     4.6922   4.8828   6.6445   6.7560   7.1048   7.1979   7.5455   7.5576
    10.3063  10.3139

     occupation numbers 
     1.0000   1.0000   1.0000   1.0000   1.0000   1.0000   1.0000   1.0000
     1.0000   1.0000   1.0000   1.0000   1.0000   1.0000   1.0000   1.0000
     1.0000   1.0000   0.0000   0.0000   0.0000   0.0000   0.0000   0.0000
     0.0000   0.0000

          k = 0.0000 0.2886 0.0000 (  6807 PWs)   bands (ev):

    -7.2718  -7.2713  -4.5131  -4.5067  -4.2210  -4.2164   1.2830   1.3502
     1.9292   2.0759   2.5493   2.7560   4.2563   4.3651   4.7871   5.0132
     5.1269   5.2677   6.8535   6.9361   7.1572   7.2080   7.9561   7.9927
     9.8375   9.8744

     occupation numbers 
     1.0000   1.0000   1.0000   1.0000   1.0000   1.0000   1.0000   1.0000
     1.0000   1.0000   1.0000   1.0000   1.0000   1.0000   1.0000   1.0000
     1.0000   1.0000   0.0000   0.0000   0.0000   0.0000   0.0000   0.0000
     0.0000   0.0000

          k = 0.0000 0.2886 0.0940 (  6806 PWs)   bands (ev):

    -7.2158  -7.2144  -4.9966  -4.9933  -3.7370  -3.7337   1.2615   1.3008
     1.6980   1.8020   2.6253   2.7810   4.5608   4.7693   4.9051   5.1668
     5.2991   5.5048   6.6985   6.7385   6.9694   7.0559   7.5320   7.5924
     9.5951   9.6041

     occupation numbers 
     1.0000   1.0000   1.0000   1.0000   1.0000   1.0000   1.0000   1.0000
     1.0000   1.0000   1.0000   1.0000   1.0000   1.0000   1.0000   1.0000
     1.0000   1.0000   0.0000   0.0000   0.0000   0.0000   0.0000   0.0000
     0.0000   0.0000

          k = 0.0000 0.2886 0.1879 (  6803 PWs)   bands (ev):

    -7.0544  -7.0517  -5.5317  -5.5272  -3.2930  -3.2874   1.2504   1.3171
     1.6335   1.7628   2.7268   2.8669   4.4219   4.5019   4.7750   4.8800
     5.6618   5.7216   6.5492   6.6392   7.1554   7.2571   7.4131   7.5120
     9.6302   9.6768

     occupation numbers 
     1.0000   1.0000   1.0000   1.0000   1.0000   1.0000   1.0000   1.0000
     1.0000   1.0000   1.0000   1.0000   1.0000   1.0000   1.0000   1.0000
     1.0000   1.0000   0.0003   0.0000   0.0000   0.0000   0.0000   0.0000
     0.0000   0.0000

          k = 0.0000 0.2886 0.2819 (  6804 PWs)   bands (ev):

    -6.7913  -6.7874  -6.0273  -6.0223  -3.0143  -3.0098   1.2209   1.3022
     1.8716   2.0357   2.8044   2.9370   4.0988   4.2333   4.4018   4.5019
     5.2444   5.2800   6.8078   7.0000   7.4687   7.6081   7.7097   7.8631
     9.9540  10.0288

     occupation numbers 
     1.0000   1.0000   1.0000   1.0000   1.0000   1.0000   1.0000   1.0000
     1.0000   1.0000   1.0000   1.0000   1.0000   1.0000   1.0000   1.0000
     1.0000   1.0000   0.0000   0.0000   0.0000   0.0000   0.0000   0.0000
     0.0000   0.0000

          k = 0.0000 0.2886-0.3759 (  6800 PWs)   bands (ev):

    -6.4911  -6.4890  -6.3956  -6.3936  -2.9551  -2.9538   1.3201   1.4030
     2.2526   2.4401   2.7203   2.8574   3.8484   3.9593   4.1320   4.1939
     4.6308   4.8052   7.0636   7.2552   7.8283   8.0215   8.2137   8.2540
    10.4628  10.5498

     occupation numbers 
     1.0000   1.0000   1.0000   1.0000   1.0000   1.0000   1.0000   1.0000
     1.0000   1.0000   1.0000   1.0000   1.0000   1.0000   1.0000   1.0000
     1.0000   1.0000   0.0000   0.0000   0.0000   0.0000   0.0000   0.0000
     0.0000   0.0000

          k = 0.0000 0.4330 0.0000 (  6788 PWs)   bands (ev):

    -6.8863  -6.8856  -4.8148  -4.8104  -4.1315  -4.1283   1.0020   1.0574
     1.5225   1.6909   2.2512   2.4791   3.1550   3.2447   4.8294   4.9398
     5.0656   5.1897   6.8738   6.9869   7.0546   7.1050   9.1417   9.1633
     9.2289   9.2560

     occupation numbers 
     1.0000   1.0000   1.0000   1.0000   1.0000   1.0000   1.0000   1.0000
     1.0000   1.0000   1.0000   1.0000   1.0000   1.0000   1.0000   1.0000
     1.0000   1.0000   0.0000   0.0000   0.0000   0.0000   0.0000   0.0000
     0.0000   0.0000

          k = 0.0000 0.4330 0.0940 (  6795 PWs)   bands (ev):

    -6.8314  -6.8291  -5.0804  -5.0762  -3.8873  -3.8812   0.8811   0.8921
     1.2912   1.4037   2.3317   2.4837   3.8379   4.0139   4.6869   4.9030
     4.9800   5.0761   6.8285   6.9193   7.2363   7.3156   8.5076   8.5282
     9.1864   9.2414

     occupation numbers 
     1.0000   1.0000   1.0000   1.0000   1.0000   1.0000   1.0000   1.0000
     1.0000   1.0000   1.0000   1.0000   1.0000   1.0000   1.0000   1.0000
     1.0000   1.0000   0.0000   0.0000   0.0000   0.0000   0.0000   0.0000
     0.0000   0.0000

          k = 0.0000 0.4330 0.1879 (  6816 PWs)   bands (ev):

    -6.6827  -6.6784  -5.4464  -5.4403  -3.6708  -3.6628   0.6556   0.6976
     1.3857   1.4876   2.4491   2.5707   4.0680   4.2275   4.5640   4.6073
     5.1056   5.2899   6.9143   6.9443   7.5766   7.6290   7.7598   7.9871
     9.5084   9.6396

     occupation numbers 
     1.0000   1.0000   1.0000   1.0000   1.0000   1.0000   1.0000   1.0000
     1.0000   1.0000   1.0000   1.0000   1.0000   1.0000   1.0000   1.0000
     1.0000   1.0000   0.0000   0.0000   0.0000   0.0000   0.0000   0.0000
     0.0000   0.0000

          k = 0.0000 0.4330 0.2819 (  6815 PWs)   bands (ev):

    -6.4504  -6.4441  -5.8169  -5.8093  -3.5644  -3.5590   0.5297   0.5615
     1.7110   1.8250   2.5252   2.6348   3.7446   3.9945   4.0915   4.2871
     5.7829   5.8267   6.7193   6.7609   7.3886   7.5563   8.0726   8.4474
    10.0139  10.1993

     occupation numbers 
     1.0000   1.0000   1.0000   1.0000   1.0000   1.0000   1.0000   1.0000
     1.0000   1.0000   1.0000   1.0000   1.0000   1.0000   1.0000   1.0000
     1.0000   1.0000   0.0000   0.0000   0.0000   0.0000   0.0000   0.0000
     0.0000   0.0000

          k = 0.0000 0.4330-0.3759 (  6816 PWs)   bands (ev):

    -6.2651  -6.2635  -6.0246  -6.0227  -3.5838  -3.5823   0.5917   0.6190
     2.1092   2.2158   2.3910   2.4970   3.6470   3.6969   3.9674   4.0272
     5.1956   5.2651   7.1890   7.3404   7.8008   7.8647   8.4154   8.6163
    10.4779  10.6354

     occupation numbers 
     1.0000   1.0000   1.0000   1.0000   1.0000   1.0000   1.0000   1.0000
     1.0000   1.0000   1.0000   1.0000   1.0000   1.0000   1.0000   1.0000
     1.0000   1.0000   0.0000   0.0000   0.0000   0.0000   0.0000   0.0000
     0.0000   0.0000

          k = 0.0000-0.5773 0.0000 (  6796 PWs)   bands (ev):

    -6.6645  -6.6645  -5.0180  -5.0180  -4.0903  -4.0903   1.0208   1.0208
     1.5177   1.5177   2.3526   2.3526   2.5611   2.5611   4.8250   4.8250
     5.1111   5.1111   6.9204   6.9204   7.0384   7.0384   9.0069   9.0069
     9.7309   9.7309

     occupation numbers 
     1.0000   1.0000   1.0000   1.0000   1.0000   1.0000   1.0000   1.0000
     1.0000   1.0000   1.0000   1.0000   1.0000   1.0000   1.0000   1.0000
     1.0000   1.0000   0.0000   0.0000   0.0000   0.0000   0.0000   0.0000
     0.0000   0.0000

          k = 0.0000-0.5773 0.0940 (  6800 PWs)   bands (ev):

    -6.6228  -6.6199  -5.1130  -5.1099  -4.0600  -4.0532   1.0757   1.1047
     1.1633   1.3038   2.2547   2.4337   2.9578   3.1082   4.5967   4.7477
     4.8428   4.9864   6.8602   6.9147   7.3472   7.4907   9.1905   9.2760
     9.4203   9.4372

     occupation numbers 
     1.0000   1.0000   1.0000   1.0000   1.0000   1.0000   1.0000   1.0000
     1.0000   1.0000   1.0000   1.0000   1.0000   1.0000   1.0000   1.0000
     1.0000   1.0000   0.0000   0.0000   0.0000   0.0000   0.0000   0.0000
     0.0000   0.0000

          k = 0.0000-0.5773 0.1879 (  6798 PWs)   bands (ev):

    -6.4987  -6.4933  -5.3471  -5.3406  -3.9901  -3.9815   0.6910   0.7341
     1.3799   1.4801   2.3524   2.4822   3.5818   3.8654   4.2237   4.4090
     4.5373   4.7539   7.0496   7.1640   7.8217   8.1401   8.6424   8.6676
     9.7123   9.8870

     occupation numbers 
     1.0000   1.0000   1.0000   1.0000   1.0000   1.0000   1.0000   1.0000
     1.0000   1.0000   1.0000   1.0000   1.0000   1.0000   1.0000   1.0000
     1.0000   1.0000   0.0000   0.0000   0.0000   0.0000   0.0000   0.0000
     0.0000   0.0000

          k = 0.0000-0.5773 0.2819 (  6818 PWs)   bands (ev):

    -6.3103  -6.3036  -5.6306  -5.6229  -3.9259  -3.9202   0.3800   0.4030
     1.7651   1.8764   2.3870   2.4990   3.5519   3.8700   3.9231   4.1853
     5.0667   5.1930   7.2973   7.3476   7.6336   7.8364   8.3493   8.7015
    10.2504  10.4717

     occupation numbers 
     1.0000   1.0000   1.0000   1.0000   1.0000   1.0000   1.0000   1.0000
     1.0000   1.0000   1.0000   1.0000   1.0000   1.0000   1.0000   1.0000
     1.0000   1.0000   0.0000   0.0000   0.0000   0.0000   0.0000   0.0000
     0.0000   0.0000

          k = 0.0000-0.5773-0.3759 (  6828 PWs)   bands (ev):

    -6.1608  -6.1608  -5.8089  -5.8089  -3.8983  -3.8983   0.2773   0.2773
     2.1563   2.1563   2.2860   2.2860   3.5729   3.5729   3.9341   3.9341
     5.7920   5.7920   6.7526   6.7526   7.8032   7.8032   8.6586   8.6586
    10.5622  10.5623

     occupation numbers 
     1.0000   1.0000   1.0000   1.0000   1.0000   1.0000   1.0000   1.0000
     1.0000   1.0000   1.0000   1.0000   1.0000   1.0000   1.0000   1.0000
     1.0000   1.0000   0.0000   0.0000   0.0000   0.0000   0.0000   0.0000
     0.0000   0.0000

          k = 0.1250 0.0722 0.0000 (  6811 PWs)   bands (ev):

    -7.5591  -7.5589  -4.3633  -4.3586  -4.3006  -4.2971   2.0352   2.1554
     2.5108   2.6610   2.9312   3.1885   4.4586   4.6689   4.8492   4.9684
     5.2869   5.3494   6.6439   6.6815   7.0351   7.0808   7.5922   7.6881
    10.6653  10.7048

     occupation numbers 
     1.0000   1.0000   1.0000   1.0000   1.0000   1.0000   1.0000   1.0000
     1.0000   1.0000   1.0000   1.0000   1.0000   1.0000   1.0000   1.0000
     1.0000   1.0000   0.0000   0.0000   0.0000   0.0000   0.0000   0.0000
     0.0000   0.0000

          k = 0.1250 0.0722 0.0940 (  6810 PWs)   bands (ev):

    -7.5039  -7.5029  -5.0014  -4.9986  -3.6623  -3.6608   2.0207   2.1199
     2.6625   2.8204   2.9274   3.2518   4.2905   4.5134   4.7571   4.7891
     4.9954   5.0521   6.8161   6.9058   7.0687   7.1873   7.7128   7.8079
    10.6854  10.7099

     occupation numbers 
     1.0000   1.0000   1.0000   1.0000   1.0000   1.0000   1.0000   1.0000
     1.0000   1.0000   1.0000   1.0000   1.0000   1.0000   1.0000   1.0000
     1.0000   1.0000   0.0000   0.0000   0.0000   0.0000   0.0000   0.0000
     0.0000   0.0000

          k = 0.1250 0.0722 0.1879 (  6818 PWs)   bands (ev):

    -7.3375  -7.3356  -5.6358  -5.6323  -3.0459  -3.0423   1.9879   2.0509
     2.7497   2.8439   3.0851   3.3877   4.1839   4.3280   4.4513   4.5048
     4.7628   4.9023   6.9202   6.9956   7.1328   7.2699   7.6726   7.7052
    10.5289  10.5613

     occupation numbers 
     1.0000   1.0000   1.0000   1.0000   1.0000   1.0000   1.0000   1.0000
     1.0000   1.0000   1.0000   1.0000   1.0000   1.0000   1.0000   1.0000
     1.0000   1.0000   0.0000   0.0000   0.0000   0.0000   0.0000   0.0000
     0.0000   0.0000

          k = 0.1250 0.0722 0.2819 (  6800 PWs)   bands (ev):

    -7.0624  -7.0597  -6.2004  -6.1967  -2.5836  -2.5799   1.8529   1.9091
     2.8581   3.0243   3.1294   3.4166   3.9993   4.1659   4.3640   4.3861
     4.6897   4.8430   6.8077   6.8792   7.2899   7.3961   7.4378   7.5395
    10.4012  10.4136

     occupation numbers 
     1.0000   1.0000   1.0000   1.0000   1.0000   1.0000   1.0000   1.0000
     1.0000   1.0000   1.0000   1.0000   1.0000   1.0000   1.0000   1.0000
     1.0000   1.0000   0.0000   0.0000   0.0000   0.0000   0.0000   0.0000
     0.0000   0.0000

          k = 0.1250 0.0722-0.3759 (  6812 PWs)   bands (ev):

    -6.6903  -6.6889  -6.6692  -6.6681  -2.3972  -2.3967   1.7453   1.8028
     2.8762   3.0546   3.1442   3.2595   4.0322   4.2345   4.4020   4.5581
     4.6919   4.8825   6.6442   6.7558   7.1045   7.1977   7.5463   7.5583
    10.3064  10.3140

     occupation numbers 
     1.0000   1.0000   1.0000   1.0000   1.0000   1.0000   1.0000   1.0000
     1.0000   1.0000   1.0000   1.0000   1.0000   1.0000   1.0000   1.0000
     1.0000   1.0000   0.0000   0.0000   0.0000   0.0000   0.0000   0.0000
     0.0000   0.0000

          k = 0.1250 0.2165 0.0000 (  6797 PWs)   bands (ev):

    -7.3636  -7.3631  -4.4337  -4.4252  -4.2713  -4.2645   1.5070   1.6278
     1.8557   1.9623   2.9754   3.1449   4.2659   4.4214   4.7721   4.8160
     5.2278   5.2695   6.9706   7.0084   7.2314   7.2503   7.6865   7.7497
    10.4380  10.4382

     occupation numbers 
     1.0000   1.0000   1.0000   1.0000   1.0000   1.0000   1.0000   1.0000
     1.0000   1.0000   1.0000   1.0000   1.0000   1.0000   1.0000   1.0000
     1.0000   1.0000   0.0000   0.0000   0.0000   0.0000   0.0000   0.0000
     0.0000   0.0000

          k = 0.1250 0.2165 0.0940 (  6791 PWs)   bands (ev):

    -7.3098  -7.3085  -4.9595  -4.9564  -3.7617  -3.7590   1.5526   1.6562
     1.8908   1.9717   2.9451   3.1109   4.2811   4.3343   4.4805   4.5832
     5.4081   5.4681   6.8080   6.8582   7.4091   7.4918   7.6879   7.7435
    10.2716  10.2925

     occupation numbers 
     1.0000   1.0000   1.0000   1.0000   1.0000   1.0000   1.0000   1.0000
     1.0000   1.0000   1.0000   1.0000   1.0000   1.0000   1.0000   1.0000
     1.0000   1.0000   0.0000   0.0000   0.0000   0.0000   0.0000   0.0000
     0.0000   0.0000

          k = 0.1250 0.2165 0.1879 (  6798 PWs)   bands (ev):

    -7.1487  -7.1463  -5.5384  -5.5344  -3.2624  -3.2575   1.6122   1.7012
     1.9580   2.0766   2.9345   3.0941   3.8234   3.9035   4.6165   4.7488
     5.1929   5.2938   6.8336   6.8584   7.5316   7.6117   7.8607   7.9072
    10.2312  10.2470

     occupation numbers 
     1.0000   1.0000   1.0000   1.0000   1.0000   1.0000   1.0000   1.0000
     1.0000   1.0000   1.0000   1.0000   1.0000   1.0000   1.0000   1.0000
     1.0000   1.0000   0.0000   0.0000   0.0000   0.0000   0.0000   0.0000
     0.0000   0.0000

          k = 0.1250 0.2165 0.2819 (  6803 PWs)   bands (ev):

    -6.8836  -6.8803  -6.0651  -6.0607  -2.9121  -2.9078   1.5650   1.6693
     2.1572   2.3348   2.8600   3.0025   3.6080   3.7654   4.6413   4.6660
     4.9359   5.0100   6.7297   6.7879   7.7826   7.8169   8.0509   8.0934
    10.4115  10.4253

     occupation numbers 
     1.0000   1.0000   1.0000   1.0000   1.0000   1.0000   1.0000   1.0000
     1.0000   1.0000   1.0000   1.0000   1.0000   1.0000   1.0000   1.0000
     1.0000   1.0000   0.0000   0.0000   0.0000   0.0000   0.0000   0.0000
     0.0000   0.0000

          k = 0.1250 0.2165-0.3759 (  6802 PWs)   bands (ev):

    -6.5467  -6.5443  -6.4891  -6.4870  -2.7831  -2.7820   1.5274   1.6273
     2.4292   2.5863   2.6696   2.6823   3.7895   3.9715   4.2827   4.3088
     4.9945   5.0840   6.6415   6.7132   7.9127   7.9304   8.1455   8.1604
    10.6906  10.8261

     occupation numbers 
     1.0000   1.0000   1.0000   1.0000   1.0000   1.0000   1.0000   1.0000
     1.0000   1.0000   1.0000   1.0000   1.0000   1.0000   1.0000   1.0000
     1.0000   1.0000   0.0000   0.0000   0.0000   0.0000   0.0000   0.0000
     0.0000   0.0000

          k = 0.1250 0.3608 0.0000 (  6800 PWs)   bands (ev):

    -7.0197  -7.0190  -4.6315  -4.6231  -4.2381  -4.2312   1.1136   1.1901
     1.4671   1.5680   2.6468   2.8096   3.7253   3.8212   4.2770   4.3891
     4.7302   4.7795   7.3864   7.4362   7.6831   7.6978   8.4517   8.4682
     9.8653   9.8911

     occupation numbers 
     1.0000   1.0000   1.0000   1.0000   1.0000   1.0000   1.0000   1.0000
     1.0000   1.0000   1.0000   1.0000   1.0000   1.0000   1.0000   1.0000
     1.0000   1.0000   0.0000   0.0000   0.0000   0.0000   0.0000   0.0000
     0.0000   0.0000

          k = 0.1250 0.3608 0.0940 (  6802 PWs)   bands (ev):

    -6.9666  -6.9646  -4.9851  -4.9808  -3.9073  -3.9018   1.0113   1.0437
     1.4712   1.5508   2.5444   2.6819   3.8698   3.9754   4.4412   4.6162
     4.8900   5.0586   7.1659   7.2402   7.7927   7.8402   7.9940   8.0130
     9.7863   9.8080

     occupation numbers 
     1.0000   1.0000   1.0000   1.0000   1.0000   1.0000   1.0000   1.0000
     1.0000   1.0000   1.0000   1.0000   1.0000   1.0000   1.0000   1.0000
     1.0000   1.0000   0.0000   0.0000   0.0000   0.0000   0.0000   0.0000
     0.0000   0.0000

          k = 0.1250 0.3608 0.1879 (  6809 PWs)   bands (ev):

    -6.8147  -6.8111  -5.4343  -5.4290  -3.5905  -3.5832   0.9086   0.9598
     1.5244   1.6259   2.5789   2.6919   3.4283   3.5230   4.8810   5.0468
     5.5335   5.7031   6.6350   6.7070   7.3924   7.4352   8.1891   8.2779
     9.9540  10.0089

     occupation numbers 
     1.0000   1.0000   1.0000   1.0000   1.0000   1.0000   1.0000   1.0000
     1.0000   1.0000   1.0000   1.0000   1.0000   1.0000   1.0000   1.0000
     1.0000   1.0000   0.0000   0.0000   0.0000   0.0000   0.0000   0.0000
     0.0000   0.0000

          k = 0.1250 0.3608 0.2819 (  6814 PWs)   bands (ev):

    -6.5700  -6.5649  -5.8686  -5.8623  -3.3980  -3.3926   0.8815   0.9386
     1.6552   1.7648   2.4235   2.5222   3.4632   3.5872   4.9996   5.0413
     5.5527   5.5770   6.6148   6.7250   7.4145   7.4521   8.3327   8.4582
    10.2433  10.3160

     occupation numbers 
     1.0000   1.0000   1.0000   1.0000   1.0000   1.0000   1.0000   1.0000
     1.0000   1.0000   1.0000   1.0000   1.0000   1.0000   1.0000   1.0000
     1.0000   1.0000   0.0000   0.0000   0.0000   0.0000   0.0000   0.0000
     0.0000   0.0000

          k = 0.1250 0.3608-0.3759 (  6794 PWs)   bands (ev):

    -6.3164  -6.3137  -6.1751  -6.1721  -3.3606  -3.3589   0.9680   1.0320
     1.8889   1.9662   2.0761   2.1984   3.9042   4.0365   4.4807   4.5575
     5.0669   5.1815   6.9396   7.0491   7.9809   8.0578   8.2867   8.3768
    10.5650  10.6277

     occupation numbers 
     1.0000   1.0000   1.0000   1.0000   1.0000   1.0000   1.0000   1.0000
     1.0000   1.0000   1.0000   1.0000   1.0000   1.0000   1.0000   1.0000
     1.0000   1.0000   0.0000   0.0000   0.0000   0.0000   0.0000   0.0000
     0.0000   0.0000

          k = 0.1250 0.5051 0.0000 (  6810 PWs)   bands (ev):

    -6.6823  -6.6816  -4.9067  -4.9025  -4.2076  -4.2040   1.0577   1.1141
     1.4114   1.5188   2.3426   2.5537   2.7520   2.8889   4.2646   4.3370
     4.4791   4.5218   7.4368   7.4729   7.7672   7.7778   9.4109   9.4277
     9.5593   9.5794

     occupation numbers 
     1.0000   1.0000   1.0000   1.0000   1.0000   1.0000   1.0000   1.0000
     1.0000   1.0000   1.0000   1.0000   1.0000   1.0000   1.0000   1.0000
     1.0000   1.0000   0.0000   0.0000   0.0000   0.0000   0.0000   0.0000
     0.0000   0.0000

          k = 0.1250 0.5051 0.0940 (  6806 PWs)   bands (ev):

    -6.6341  -6.6312  -5.0802  -5.0758  -4.0750  -4.0676   0.9306   0.9406
     1.2639   1.3829   2.2862   2.4454   3.3244   3.5511   3.8372   4.0149
     4.8960   4.9657   7.1523   7.2109   7.9913   8.0350   8.9253   8.9447
     9.6287   9.6846

     occupation numbers 
     1.0000   1.0000   1.0000   1.0000   1.0000   1.0000   1.0000   1.0000
     1.0000   1.0000   1.0000   1.0000   1.0000   1.0000   1.0000   1.0000
     1.0000   1.0000   0.0000   0.0000   0.0000   0.0000   0.0000   0.0000
     0.0000   0.0000

          k = 0.1250 0.5051 0.1879 (  6806 PWs)   bands (ev):

    -6.5001  -6.4946  -5.3705  -5.3636  -3.9307  -3.9216   0.6358   0.6812
     1.2824   1.3672   2.3943   2.4884   3.2610   3.4290   4.4243   4.5879
     5.2365   5.4162   6.8530   6.8996   8.0293   8.0717   8.3088   8.4383
     9.9610  10.0638

     occupation numbers 
     1.0000   1.0000   1.0000   1.0000   1.0000   1.0000   1.0000   1.0000
     1.0000   1.0000   1.0000   1.0000   1.0000   1.0000   1.0000   1.0000
     1.0000   1.0000   0.0000   0.0000   0.0000   0.0000   0.0000   0.0000
     0.0000   0.0000

          k = 0.1250 0.5051 0.2819 (  6822 PWs)   bands (ev):

    -6.2939  -6.2864  -5.6837  -5.6751  -3.8445  -3.8384   0.4443   0.4742
     1.4380   1.5128   2.1494   2.2208   3.5496   3.6686   4.8228   4.9397
     5.5907   5.7402   6.7890   6.8283   7.3634   7.4640   8.4178   8.5984
    10.2861  10.4035

     occupation numbers 
     1.0000   1.0000   1.0000   1.0000   1.0000   1.0000   1.0000   1.0000
     1.0000   1.0000   1.0000   1.0000   1.0000   1.0000   1.0000   1.0000
     1.0000   1.0000   0.0000   0.0000   0.0000   0.0000   0.0000   0.0000
     0.0000   0.0000

          k = 0.1250 0.5051-0.3759 (  6834 PWs)   bands (ev):

    -6.1319  -6.1303  -5.8650  -5.8629  -3.8398  -3.8384   0.4335   0.4506
     1.6931   1.7426   1.7850   1.8827   4.0847   4.1872   4.4366   4.4697
     5.6297   5.6828   6.8861   6.9659   7.5977   7.6458   8.3532   8.4140
    10.6747  10.7233

     occupation numbers 
     1.0000   1.0000   1.0000   1.0000   1.0000   1.0000   1.0000   1.0000
     1.0000   1.0000   1.0000   1.0000   1.0000   1.0000   1.0000   1.0000
     1.0000   1.0000   0.0000   0.0000   0.0000   0.0000   0.0000   0.0000
     0.0000   0.0000

          k = 0.2500 0.1443 0.0000 (  6807 PWs)   bands (ev):

    -7.2717  -7.2712  -4.5127  -4.5063  -4.2213  -4.2167   1.2829   1.3502
     1.9291   2.0758   2.5489   2.7557   4.2565   4.3654   4.7869   5.0132
     5.1267   5.2675   6.8532   6.9359   7.1567   7.2075   7.9565   7.9930
     9.8375   9.8744

     occupation numbers 
     1.0000   1.0000   1.0000   1.0000   1.0000   1.0000   1.0000   1.0000
     1.0000   1.0000   1.0000   1.0000   1.0000   1.0000   1.0000   1.0000
     1.0000   1.0000   0.0000   0.0000   0.0000   0.0000   0.0000   0.0000
     0.0000   0.0000

          k = 0.2500 0.1443 0.0940 (  6807 PWs)   bands (ev):

    -7.2221  -7.2207  -4.9007  -4.8976  -3.8906  -3.8873   1.4313   1.5206
     2.1454   2.3615   2.5231   2.8570   3.6746   3.7649   4.4524   4.7275
     4.9313   5.1014   6.9614   7.0592   7.6072   7.7885   8.3512   8.3586
    10.2763  10.3625

     occupation numbers 
     1.0000   1.0000   1.0000   1.0000   1.0000   1.0000   1.0000   1.0000
     1.0000   1.0000   1.0000   1.0000   1.0000   1.0000   1.0000   1.0000
     1.0000   1.0000   0.0000   0.0000   0.0000   0.0000   0.0000   0.0000
     0.0000   0.0000

          k = 0.2500 0.1443 0.1879 (  6804 PWs)   bands (ev):

    -7.0678  -7.0652  -5.4610  -5.4569  -3.4478  -3.4424   1.6157   1.7127
     2.2009   2.3552   2.8203   3.0655   3.2312   3.4713   4.0839   4.3670
     4.6465   4.8629   7.1842   7.2600   7.9540   8.1363   8.5769   8.5886
    10.6872  10.7834

     occupation numbers 
     1.0000   1.0000   1.0000   1.0000   1.0000   1.0000   1.0000   1.0000
     1.0000   1.0000   1.0000   1.0000   1.0000   1.0000   1.0000   1.0000
     1.0000   1.0000   0.0000   0.0000   0.0000   0.0000   0.0000   0.0000
     0.0000   0.0000

          k = 0.2500 0.1443 0.2819 (  6804 PWs)   bands (ev):

    -6.8131  -6.8097  -5.9777  -5.9732  -3.1166  -3.1120   1.5299   1.6262
     2.3369   2.5652   2.7457   2.8702   3.4112   3.7829   3.9721   4.0732
     4.4728   4.6609   7.2652   7.3285   8.0933   8.1193   8.5515   8.5638
    10.8848  10.9128

     occupation numbers 
     1.0000   1.0000   1.0000   1.0000   1.0000   1.0000   1.0000   1.0000
     1.0000   1.0000   1.0000   1.0000   1.0000   1.0000   1.0000   1.0000
     1.0000   1.0000   0.0000   0.0000   0.0000   0.0000   0.0000   0.0000
     0.0000   0.0000

          k = 0.2500 0.1443-0.3759 (  6800 PWs)   bands (ev):

    -6.4909  -6.4888  -6.3957  -6.3937  -2.9551  -2.9538   1.3201   1.4031
     2.2525   2.4402   2.7200   2.8570   3.8482   3.9590   4.1318   4.1936
     4.6305   4.8049   7.0634   7.2551   7.8280   8.0215   8.2144   8.2545
    10.4627  10.5497

     occupation numbers 
     1.0000   1.0000   1.0000   1.0000   1.0000   1.0000   1.0000   1.0000
     1.0000   1.0000   1.0000   1.0000   1.0000   1.0000   1.0000   1.0000
     1.0000   1.0000   0.0000   0.0000   0.0000   0.0000   0.0000   0.0000
     0.0000   0.0000

          k = 0.2500 0.2886 0.0000 (  6800 PWs)   bands (ev):

    -7.0196  -7.0189  -4.6312  -4.6228  -4.2383  -4.2314   1.1136   1.1901
     1.4670   1.5680   2.6465   2.8094   3.7254   3.8215   4.2769   4.3892
     4.7298   4.7792   7.3861   7.4358   7.6828   7.6975   8.4521   8.4687
     9.8652   9.8910

     occupation numbers 
     1.0000   1.0000   1.0000   1.0000   1.0000   1.0000   1.0000   1.0000
     1.0000   1.0000   1.0000   1.0000   1.0000   1.0000   1.0000   1.0000
     1.0000   1.0000   0.0000   0.0000   0.0000   0.0000   0.0000   0.0000
     0.0000   0.0000

          k = 0.2500 0.2886 0.0940 (  6802 PWs)   bands (ev):

    -6.9735  -6.9716  -4.8905  -4.8862  -4.0439  -4.0380   1.1918   1.2756
     1.6462   1.7039   2.6856   2.8483   3.2350   3.3952   3.9933   4.1279
     5.2493   5.2913   6.9700   7.0303   7.8697   7.9357   8.8482   8.8657
    10.1353  10.1886

     occupation numbers 
     1.0000   1.0000   1.0000   1.0000   1.0000   1.0000   1.0000   1.0000
     1.0000   1.0000   1.0000   1.0000   1.0000   1.0000   1.0000   1.0000
     1.0000   1.0000   0.0000   0.0000   0.0000   0.0000   0.0000   0.0000
     0.0000   0.0000

          k = 0.2500 0.2886 0.1879 (  6809 PWs)   bands (ev):

    -6.8294  -6.8260  -5.3593  -5.3543  -3.7218  -3.7147   1.2567   1.3506
     1.6681   1.7639   2.6171   2.8050   2.9156   3.2889   4.1420   4.2970
     5.2995   5.3789   6.9365   6.9657   7.9217   8.0267   8.9375   8.9667
    10.4986  10.5635

     occupation numbers 
     1.0000   1.0000   1.0000   1.0000   1.0000   1.0000   1.0000   1.0000
     1.0000   1.0000   1.0000   1.0000   1.0000   1.0000   1.0000   1.0000
     1.0000   1.0000   0.0000   0.0000   0.0000   0.0000   0.0000   0.0000
     0.0000   0.0000

          k = 0.2500 0.2886 0.2819 (  6814 PWs)   bands (ev):

    -6.5937  -6.5892  -5.8148  -5.8093  -3.4797  -3.4743   1.1547   1.2486
     1.7183   1.8208   2.2930   2.4047   3.4910   3.7212   4.4756   4.6102
     4.8409   4.9933   7.1523   7.1907   8.0093   8.0334   8.6563   8.6828
    10.7735  10.7879

     occupation numbers 
     1.0000   1.0000   1.0000   1.0000   1.0000   1.0000   1.0000   1.0000
     1.0000   1.0000   1.0000   1.0000   1.0000   1.0000   1.0000   1.0000
     1.0000   1.0000   0.0000   0.0000   0.0000   0.0000   0.0000   0.0000
     0.0000   0.0000

          k = 0.2500 0.2886-0.3759 (  6794 PWs)   bands (ev):

    -6.3163  -6.3135  -6.1752  -6.1722  -3.3606  -3.3589   0.9681   1.0321
     1.8888   1.9660   2.0758   2.1982   3.9042   4.0365   4.4805   4.5572
     5.0667   5.1813   6.9397   7.0493   7.9813   8.0584   8.2862   8.3764
    10.5649  10.6276

     occupation numbers 
     1.0000   1.0000   1.0000   1.0000   1.0000   1.0000   1.0000   1.0000
     1.0000   1.0000   1.0000   1.0000   1.0000   1.0000   1.0000   1.0000
     1.0000   1.0000   0.0000   0.0000   0.0000   0.0000   0.0000   0.0000
     0.0000   0.0000

          k = 0.2500 0.4330 0.0000 (  6811 PWs)   bands (ev):

    -6.6990  -6.6981  -4.7390  -4.7284  -4.3841  -4.3743   1.1436   1.2673
     1.2687   1.3971   2.5913   2.7884   3.2626   3.3256   3.6328   3.6344
     3.9085   3.9361   8.1699   8.2075   8.5885   8.5886   8.7813   8.7814
    10.4406  10.4514

     occupation numbers 
     1.0000   1.0000   1.0000   1.0000   1.0000   1.0000   1.0000   1.0000
     1.0000   1.0000   1.0000   1.0000   1.0000   1.0000   1.0000   1.0000
     1.0000   1.0000   0.0000   0.0000   0.0000   0.0000   0.0000   0.0000
     0.0000   0.0000

          k = 0.2500 0.4330 0.0940 (  6813 PWs)   bands (ev):

    -6.6544  -6.6516  -4.9532  -4.9476  -4.2118  -4.2031   0.9601   0.9896
     1.4732   1.5572   2.4863   2.6174   2.8893   3.0852   3.7955   3.9231
     4.4832   4.5975   7.8378   7.9544   8.2286   8.3018   8.9570   8.9814
    10.5054  10.5627

     occupation numbers 
     1.0000   1.0000   1.0000   1.0000   1.0000   1.0000   1.0000   1.0000
     1.0000   1.0000   1.0000   1.0000   1.0000   1.0000   1.0000   1.0000
     1.0000   1.0000   0.0000   0.0000   0.0000   0.0000   0.0000   0.0000
     0.0000   0.0000

          k = 0.2500 0.4330 0.1879 (  6813 PWs)   bands (ev):

    -6.5217  -6.5165  -5.3051  -5.2986  -3.9916  -3.9822   0.7978   0.8529
     1.3361   1.4238   2.1731   2.2673   3.0231   3.2065   4.4744   4.5844
     5.2695   5.3989   7.1108   7.1970   7.9028   7.9368   8.8845   8.9245
    10.6825  10.7444

     occupation numbers 
     1.0000   1.0000   1.0000   1.0000   1.0000   1.0000   1.0000   1.0000
     1.0000   1.0000   1.0000   1.0000   1.0000   1.0000   1.0000   1.0000
     1.0000   1.0000   0.0000   0.0000   0.0000   0.0000   0.0000   0.0000
     0.0000   0.0000

          k = 0.2500 0.4330 0.2819 (  6810 PWs)   bands (ev):

    -6.3092  -6.3021  -5.6661  -5.6580  -3.8376  -3.8311   0.7415   0.8074
     1.1774   1.2494   1.7139   1.8007   3.7818   3.9120   5.0895   5.2071
     5.6282   5.7633   6.6383   6.7288   7.5556   7.6003   8.4612   8.5037
    10.8898  10.9135

     occupation numbers 
     1.0000   1.0000   1.0000   1.0000   1.0000   1.0000   1.0000   1.0000
     1.0000   1.0000   1.0000   1.0000   1.0000   1.0000   1.0000   1.0000
     1.0000   1.0000   0.0000   0.0000   0.0000   0.0000   0.0000   0.0000
     0.0000   0.0000

          k = 0.2500 0.4330-0.3759 (  6808 PWs)   bands (ev):

    -6.0856  -6.0817  -5.9377  -5.9331  -3.7808  -3.7789   0.7230   0.7838
     1.2036   1.2375   1.4903   1.5549   4.4104   4.5159   5.1067   5.1382
     5.5327   5.6238   6.7073   6.8092   7.7342   7.7495   7.9054   7.9335
    11.0570  11.0808

     occupation numbers 
     1.0000   1.0000   1.0000   1.0000   1.0000   1.0000   1.0000   1.0000
     1.0000   1.0000   1.0000   1.0000   1.0000   1.0000   1.0000   1.0000
     1.0000   1.0000   0.0000   0.0000   0.0000   0.0000   0.0000   0.0000
     0.0000   0.0000

          k = 0.2500 0.5773 0.0000 (  6829 PWs)   bands (ev):

    -6.5296  -6.5291  -4.8000  -4.7946  -4.4752  -4.4698   1.1992   1.3100
     1.4338   1.4559   2.6224   2.6750   2.7850   2.8740   3.3687   3.4878
     3.6495   3.6571   8.3957   8.4276   8.7510   8.7682   9.3013   9.3067
    10.4895  10.4975

     occupation numbers 
     1.0000   1.0000   1.0000   1.0000   1.0000   1.0000   1.0000   1.0000
     1.0000   1.0000   1.0000   1.0000   1.0000   1.0000   1.0000   1.0000
     1.0000   1.0000   0.0000   0.0000   0.0000   0.0000   0.0000   0.0000
     0.0000   0.0000

          k = 0.2500 0.5773 0.0940 (  6813 PWs)   bands (ev):

    -6.4885  -6.4851  -4.9750  -4.9714  -4.3390  -4.3301   1.0182   1.0270
     1.3815   1.5302   2.3453   2.5066   2.7491   3.0254   3.4774   3.6071
     4.2462   4.3604   8.0724   8.1481   8.7160   8.7389   9.0710   9.1067
    10.5510  10.5824

     occupation numbers 
     1.0000   1.0000   1.0000   1.0000   1.0000   1.0000   1.0000   1.0000
     1.0000   1.0000   1.0000   1.0000   1.0000   1.0000   1.0000   1.0000
     1.0000   1.0000   0.0000   0.0000   0.0000   0.0000   0.0000   0.0000
     0.0000   0.0000

          k = 0.2500 0.5773 0.1879 (  6811 PWs)   bands (ev):

    -6.3654  -6.3589  -5.2746  -5.2676  -4.1543  -4.1440   0.7885   0.8412
     1.1084   1.1942   1.9229   2.0107   3.2377   3.4167   4.3040   4.3975
     5.0289   5.1857   7.4037   7.4866   8.3418   8.3844   8.6083   8.6859
    10.7402  10.7702

     occupation numbers 
     1.0000   1.0000   1.0000   1.0000   1.0000   1.0000   1.0000   1.0000
     1.0000   1.0000   1.0000   1.0000   1.0000   1.0000   1.0000   1.0000
     1.0000   1.0000   0.0000   0.0000   0.0000   0.0000   0.0000   0.0000
     0.0000   0.0000

          k = 0.2500 0.5773 0.2819 (  6810 PWs)   bands (ev):

    -6.1694  -6.1608  -5.5897  -5.5802  -4.0213  -4.0143   0.6454   0.7006
     0.9650   1.0271   1.4467   1.5290   4.0677   4.1922   5.0914   5.2469
     5.6313   5.8742   6.7028   6.7906   7.6251   7.7142   8.1309   8.1765
    11.1045  11.1178

     occupation numbers 
     1.0000   1.0000   1.0000   1.0000   1.0000   1.0000   1.0000   1.0000
     1.0000   1.0000   1.0000   1.0000   1.0000   1.0000   1.0000   1.0000
     1.0000   0.9998   0.0000   0.0000   0.0000   0.0000   0.0000   0.0000
     0.0000   0.0000

          k = 0.2500 0.5773-0.3759 (  6834 PWs)   bands (ev):

    -5.9638  -5.9616  -5.8299  -5.8266  -3.9708  -3.9698   0.5871   0.6039
     1.0927   1.1137   1.1552   1.2116   4.6907   4.7517   5.3627   5.3959
     6.0033   6.0089   6.4906   6.4977   7.3661   7.3737   7.7523   7.7658
    11.4569  11.4708

     occupation numbers 
     1.0000   1.0000   1.0000   1.0000   1.0000   1.0000   1.0000   1.0000
     1.0000   1.0000   1.0000   1.0000   1.0000   1.0000   1.0000   1.0000
     0.9875   0.9855   0.0024   0.0019   0.0000   0.0000   0.0000   0.0000
     0.0000   0.0000

          k = 0.2500 0.0000 0.0000 (  6797 PWs)   bands (ev):

    -7.3635  -7.3631  -4.4336  -4.4250  -4.2714  -4.2647   1.5069   1.6277
     1.8556   1.9622   2.9752   3.1447   4.2659   4.4213   4.7723   4.8161
     5.2279   5.2696   6.9707   7.0085   7.2312   7.2501   7.6860   7.7493
    10.4380  10.5879

     occupation numbers 
     1.0000   1.0000   1.0000   1.0000   1.0000   1.0000   1.0000   1.0000
     1.0000   1.0000   1.0000   1.0000   1.0000   1.0000   1.0000   1.0000
     1.0000   1.0000   0.0000   0.0000   0.0000   0.0000   0.0000   0.0000
     0.0000   0.0000

          k = 0.2500 0.0000 0.0940 (  6791 PWs)   bands (ev):

    -7.3097  -7.3084  -4.9594  -4.9563  -3.7618  -3.7591   1.5526   1.6562
     1.8909   1.9718   2.9449   3.1108   4.2809   4.3341   4.4804   4.5831
     5.4082   5.4683   6.8080   6.8582   7.4088   7.4915   7.6877   7.7433
    10.2715  10.2923

     occupation numbers 
     1.0000   1.0000   1.0000   1.0000   1.0000   1.0000   1.0000   1.0000
     1.0000   1.0000   1.0000   1.0000   1.0000   1.0000   1.0000   1.0000
     1.0000   1.0000   0.0000   0.0000   0.0000   0.0000   0.0000   0.0000
     0.0000   0.0000

          k = 0.2500 0.0000 0.1879 (  6800 PWs)   bands (ev):

    -7.1486  -7.1462  -5.5383  -5.5342  -3.2625  -3.2576   1.6122   1.7012
     1.9582   2.0769   2.9344   3.0941   3.8232   3.9034   4.6163   4.7486
     5.1927   5.2937   6.8333   6.8581   7.5316   7.6117   7.8607   7.9073
    10.2310  10.2468

     occupation numbers 
     1.0000   1.0000   1.0000   1.0000   1.0000   1.0000   1.0000   1.0000
     1.0000   1.0000   1.0000   1.0000   1.0000   1.0000   1.0000   1.0000
     1.0000   1.0000   0.0000   0.0000   0.0000   0.0000   0.0000   0.0000
     0.0000   0.0000

          k = 0.2500 0.0000 0.2819 (  6802 PWs)   bands (ev):

    -6.8836  -6.8803  -6.0650  -6.0606  -2.9122  -2.9079   1.5651   1.6694
     2.1574   2.3350   2.8599   3.0024   3.6078   3.7653   4.6410   4.6657
     4.9356   5.0096   6.7291   6.7872   7.7830   7.8173   8.0512   8.0937
    10.4113  10.4252

     occupation numbers 
     1.0000   1.0000   1.0000   1.0000   1.0000   1.0000   1.0000   1.0000
     1.0000   1.0000   1.0000   1.0000   1.0000   1.0000   1.0000   1.0000
     1.0000   1.0000   0.0000   0.0000   0.0000   0.0000   0.0000   0.0000
     0.0000   0.0000

          k = 0.2500 0.0000-0.3759 (  6804 PWs)   bands (ev):

    -6.5465  -6.5442  -6.4892  -6.4870  -2.7831  -2.7821   1.5274   1.6274
     2.4292   2.5863   2.6698   2.6823   3.7892   3.9713   4.2826   4.3087
     4.9940   5.0836   6.6409   6.7125   7.9129   7.9307   8.1460   8.1609
    10.6903  10.7256

     occupation numbers 
     1.0000   1.0000   1.0000   1.0000   1.0000   1.0000   1.0000   1.0000
     1.0000   1.0000   1.0000   1.0000   1.0000   1.0000   1.0000   1.0000
     1.0000   1.0000   0.0000   0.0000   0.0000   0.0000   0.0000   0.0000
     0.0000   0.0000

          k = 0.3750 0.2165 0.0000 (  6788 PWs)   bands (ev):

    -6.8861  -6.8854  -4.8145  -4.8101  -4.1318  -4.1286   1.0020   1.0574
     1.5223   1.6909   2.2507   2.4787   3.1551   3.2448   4.8291   4.9395
     5.0652   5.1893   6.8734   6.9865   7.0540   7.1044   9.1420   9.1637
     9.2288   9.2559

     occupation numbers 
     1.0000   1.0000   1.0000   1.0000   1.0000   1.0000   1.0000   1.0000
     1.0000   1.0000   1.0000   1.0000   1.0000   1.0000   1.0000   1.0000
     1.0000   1.0000   0.0000   0.0000   0.0000   0.0000   0.0000   0.0000
     0.0000   0.0000

          k = 0.3750 0.2165 0.0940 (  6795 PWs)   bands (ev):

    -6.8467  -6.8446  -4.9105  -4.9068  -4.1275  -4.1210   1.1865   1.2895
     1.6721   1.7681   2.4424   2.6301   2.6689   2.8523   4.5479   4.7145
     4.9147   5.0010   6.9025   6.9656   7.4785   7.6635   9.3961   9.4174
     9.6092   9.6958

     occupation numbers 
     1.0000   1.0000   1.0000   1.0000   1.0000   1.0000   1.0000   1.0000
     1.0000   1.0000   1.0000   1.0000   1.0000   1.0000   1.0000   1.0000
     1.0000   1.0000   0.0000   0.0000   0.0000   0.0000   0.0000   0.0000
     0.0000   0.0000

          k = 0.3750 0.2165 0.1879 (  6816 PWs)   bands (ev):

    -6.7149  -6.7111  -5.2886  -5.2834  -3.9177  -3.9102   1.2080   1.3001
     1.6108   1.7309   2.5047   2.6508   3.0454   3.3317   4.0710   4.3433
     4.5329   4.7555   7.1614   7.2908   7.9636   8.2646   9.1725   9.1931
    10.1411  10.3014

     occupation numbers 
     1.0000   1.0000   1.0000   1.0000   1.0000   1.0000   1.0000   1.0000
     1.0000   1.0000   1.0000   1.0000   1.0000   1.0000   1.0000   1.0000
     1.0000   1.0000   0.0000   0.0000   0.0000   0.0000   0.0000   0.0000
     0.0000   0.0000

          k = 0.3750 0.2165 0.2819 (  6815 PWs)   bands (ev):

    -6.5007  -6.4959  -5.7012  -5.6954  -3.7155  -3.7100   0.8436   0.8885
     1.9798   2.1215   2.4289   2.5613   3.4792   3.7939   3.9089   4.0956
     4.4231   4.6676   7.4942   7.5230   8.2944   8.3943   8.5710   8.6943
    10.5683  10.6716

     occupation numbers 
     1.0000   1.0000   1.0000   1.0000   1.0000   1.0000   1.0000   1.0000
     1.0000   1.0000   1.0000   1.0000   1.0000   1.0000   1.0000   1.0000
     1.0000   1.0000   0.0000   0.0000   0.0000   0.0000   0.0000   0.0000
     0.0000   0.0000

          k = 0.3750 0.2165-0.3759 (  6818 PWs)   bands (ev):

    -6.2648  -6.2631  -6.0246  -6.0227  -3.5838  -3.5823   0.5917   0.6190
     2.1090   2.2156   2.3906   2.4965   3.6467   3.6966   3.9672   4.0269
     5.1954   5.2649   7.1890   7.3406   7.8010   7.8650   8.4152   8.6160
    10.4777  10.6353

     occupation numbers 
     1.0000   1.0000   1.0000   1.0000   1.0000   1.0000   1.0000   1.0000
     1.0000   1.0000   1.0000   1.0000   1.0000   1.0000   1.0000   1.0000
     1.0000   1.0000   0.0000   0.0000   0.0000   0.0000   0.0000   0.0000
     0.0000   0.0000

          k = 0.3750 0.3608 0.0000 (  6810 PWs)   bands (ev):

    -6.6821  -6.6815  -4.9063  -4.9022  -4.2080  -4.2044   1.0578   1.1143
     1.4113   1.5187   2.3424   2.5535   2.7520   2.8889   4.2643   4.3368
     4.4787   4.5215   7.4363   7.4724   7.7666   7.7773   9.4113   9.4280
     9.5592   9.5792

     occupation numbers 
     1.0000   1.0000   1.0000   1.0000   1.0000   1.0000   1.0000   1.0000
     1.0000   1.0000   1.0000   1.0000   1.0000   1.0000   1.0000   1.0000
     1.0000   1.0000   0.0000   0.0000   0.0000   0.0000   0.0000   0.0000
     0.0000   0.0000

          k = 0.3750 0.3608 0.0940 (  6806 PWs)   bands (ev):

    -6.6436  -6.6408  -4.9923  -4.9884  -4.1894  -4.1816   1.0774   1.1292
     1.4310   1.4815   2.3511   2.4770   2.8335   3.0503   3.7922   3.9154
     5.0339   5.0860   7.0697   7.1290   7.9810   8.0434   9.4423   9.4634
     9.7719   9.8410

     occupation numbers 
     1.0000   1.0000   1.0000   1.0000   1.0000   1.0000   1.0000   1.0000
     1.0000   1.0000   1.0000   1.0000   1.0000   1.0000   1.0000   1.0000
     1.0000   1.0000   0.0000   0.0000   0.0000   0.0000   0.0000   0.0000
     0.0000   0.0000

          k = 0.3750 0.3608 0.1879 (  6805 PWs)   bands (ev):

    -6.5201  -6.5150  -5.2785  -5.2724  -4.0536  -4.0447   0.9350   1.0107
     1.2420   1.3201   2.3878   2.5064   3.1119   3.4859   3.8326   4.0698
     5.2769   5.3705   6.9018   6.9165   8.1894   8.3272   8.9607   8.9959
    10.1191  10.2202

     occupation numbers 
     1.0000   1.0000   1.0000   1.0000   1.0000   1.0000   1.0000   1.0000
     1.0000   1.0000   1.0000   1.0000   1.0000   1.0000   1.0000   1.0000
     1.0000   1.0000   0.0000   0.0000   0.0000   0.0000   0.0000   0.0000
     0.0000   0.0000

          k = 0.3750 0.3608 0.2819 (  6822 PWs)   bands (ev):

    -6.3242  -6.3178  -5.6140  -5.6067  -3.9197  -3.9135   0.6114   0.6508
     1.4301   1.4914   2.1052   2.1754   3.6834   3.8735   4.4649   4.6304
     5.0037   5.1937   7.1969   7.2185   7.9831   8.0705   8.3786   8.5056
    10.5301  10.6085

     occupation numbers 
     1.0000   1.0000   1.0000   1.0000   1.0000   1.0000   1.0000   1.0000
     1.0000   1.0000   1.0000   1.0000   1.0000   1.0000   1.0000   1.0000
     1.0000   1.0000   0.0000   0.0000   0.0000   0.0000   0.0000   0.0000
     0.0000   0.0000

          k = 0.3750 0.3608-0.3759 (  6832 PWs)   bands (ev):

    -6.1316  -6.1300  -5.8651  -5.8629  -3.8398  -3.8384   0.4334   0.4505
     1.6929   1.7424   1.7847   1.8824   4.0845   4.1870   4.4362   4.4693
     5.6297   5.6827   6.8862   6.9660   7.5979   7.6461   8.3528   8.4137
    10.6745  10.7232

     occupation numbers 
     1.0000   1.0000   1.0000   1.0000   1.0000   1.0000   1.0000   1.0000
     1.0000   1.0000   1.0000   1.0000   1.0000   1.0000   1.0000   1.0000
     1.0000   1.0000   0.0000   0.0000   0.0000   0.0000   0.0000   0.0000
     0.0000   0.0000

          k = 0.3750 0.5051 0.0000 (  6829 PWs)   bands (ev):

    -6.5295  -6.5290  -4.7997  -4.7943  -4.4755  -4.4701   1.1993   1.3101
     1.4338   1.4558   2.6224   2.6750   2.7850   2.8740   3.3686   3.4876
     3.6494   3.6571   8.3952   8.4271   8.7505   8.7677   9.3018   9.3071
    10.4890  10.4970

     occupation numbers 
     1.0000   1.0000   1.0000   1.0000   1.0000   1.0000   1.0000   1.0000
     1.0000   1.0000   1.0000   1.0000   1.0000   1.0000   1.0000   1.0000
     1.0000   1.0000   0.0000   0.0000   0.0000   0.0000   0.0000   0.0000
     0.0000   0.0000

          k = 0.3750 0.5051 0.0940 (  6813 PWs)   bands (ev):

    -6.4884  -6.4850  -4.9749  -4.9713  -4.3391  -4.3302   1.0183   1.0270
     1.3815   1.5303   2.3452   2.5065   2.7490   3.0253   3.4774   3.6071
     4.2461   4.3602   8.0719   8.1474   8.7158   8.7387   9.0713   9.1071
    10.5506  10.5820

     occupation numbers 
     1.0000   1.0000   1.0000   1.0000   1.0000   1.0000   1.0000   1.0000
     1.0000   1.0000   1.0000   1.0000   1.0000   1.0000   1.0000   1.0000
     1.0000   1.0000   0.0000   0.0000   0.0000   0.0000   0.0000   0.0000
     0.0000   0.0000

          k = 0.3750 0.5051 0.1879 (  6811 PWs)   bands (ev):

    -6.3653  -6.3588  -5.2745  -5.2675  -4.1544  -4.1440   0.7885   0.8411
     1.1085   1.1943   1.9228   2.0106   3.2376   3.4166   4.3039   4.3974
     5.0288   5.1855   7.4033   7.4862   8.3418   8.3844   8.6086   8.6862
    10.7398  10.7699

     occupation numbers 
     1.0000   1.0000   1.0000   1.0000   1.0000   1.0000   1.0000   1.0000
     1.0000   1.0000   1.0000   1.0000   1.0000   1.0000   1.0000   1.0000
     1.0000   1.0000   0.0000   0.0000   0.0000   0.0000   0.0000   0.0000
     0.0000   0.0000

          k = 0.3750 0.5051 0.2819 (  6811 PWs)   bands (ev):

    -6.1693  -6.1606  -5.5897  -5.5802  -4.0214  -4.0144   0.6453   0.7004
     0.9651   1.0272   1.4465   1.5288   4.0675   4.1921   5.0912   5.2468
     5.6311   5.8741   6.7027   6.7905   7.6250   7.7141   8.1312   8.1767
    11.1041  11.1173

     occupation numbers 
     1.0000   1.0000   1.0000   1.0000   1.0000   1.0000   1.0000   1.0000
     1.0000   1.0000   1.0000   1.0000   1.0000   1.0000   1.0000   1.0000
     1.0000   0.9998   0.0000   0.0000   0.0000   0.0000   0.0000   0.0000
     0.0000   0.0000

          k = 0.3750 0.5051-0.3759 (  6834 PWs)   bands (ev):

    -5.9635  -5.9613  -5.8300  -5.8268  -3.9708  -3.9699   0.5870   0.6038
     1.0926   1.1137   1.1552   1.2116   4.6906   4.7516   5.3623   5.3956
     6.0033   6.0089   6.4907   6.4978   7.3663   7.3739   7.7522   7.7656
    11.4565  11.4706

     occupation numbers 
     1.0000   1.0000   1.0000   1.0000   1.0000   1.0000   1.0000   1.0000
     1.0000   1.0000   1.0000   1.0000   1.0000   1.0000   1.0000   1.0000
     0.9875   0.9855   0.0024   0.0019   0.0000   0.0000   0.0000   0.0000
     0.0000   0.0000

          k = 0.3750-0.0722 0.0000 (  6800 PWs)   bands (ev):

    -7.0195  -7.0188  -4.6312  -4.6228  -4.2383  -4.2314   1.1136   1.1900
     1.4669   1.5678   2.6466   2.8095   3.7254   3.8214   4.2769   4.3891
     4.7300   4.7793   7.3860   7.4358   7.6824   7.6971   8.4519   8.4684
     9.8650   9.8908

     occupation numbers 
     1.0000   1.0000   1.0000   1.0000   1.0000   1.0000   1.0000   1.0000
     1.0000   1.0000   1.0000   1.0000   1.0000   1.0000   1.0000   1.0000
     1.0000   1.0000   0.0000   0.0000   0.0000   0.0000   0.0000   0.0000
     0.0000   0.0000

          k = 0.3750-0.0722 0.0940 (  6803 PWs)   bands (ev):

    -6.9665  -6.9645  -4.9849  -4.9805  -3.9076  -3.9020   1.0112   1.0435
     1.4713   1.5509   2.5442   2.6817   3.8696   3.9751   4.4412   4.6161
     4.8900   5.0587   7.1652   7.2396   7.7926   7.8400   7.9938   8.0128
     9.7859   9.8076

     occupation numbers 
     1.0000   1.0000   1.0000   1.0000   1.0000   1.0000   1.0000   1.0000
     1.0000   1.0000   1.0000   1.0000   1.0000   1.0000   1.0000   1.0000
     1.0000   1.0000   0.0000   0.0000   0.0000   0.0000   0.0000   0.0000
     0.0000   0.0000

          k = 0.3750-0.0722 0.1879 (  6809 PWs)   bands (ev):

    -6.8146  -6.8110  -5.4341  -5.4287  -3.5907  -3.5834   0.9085   0.9596
     1.5246   1.6262   2.5786   2.6916   3.4280   3.5227   4.8808   5.0464
     5.5336   5.7032   6.6347   6.7067   7.3921   7.4349   8.1889   8.2778
     9.9537  10.0086

     occupation numbers 
     1.0000   1.0000   1.0000   1.0000   1.0000   1.0000   1.0000   1.0000
     1.0000   1.0000   1.0000   1.0000   1.0000   1.0000   1.0000   1.0000
     1.0000   1.0000   0.0000   0.0000   0.0000   0.0000   0.0000   0.0000
     0.0000   0.0000

          k = 0.3750-0.0722 0.2819 (  6814 PWs)   bands (ev):

    -6.5700  -6.5648  -5.8684  -5.8621  -3.3981  -3.3928   0.8815   0.9386
     1.6554   1.7650   2.4233   2.5219   3.4629   3.5869   4.9991   5.0409
     5.5524   5.5767   6.6146   6.7247   7.4146   7.4522   8.3326   8.4581
    10.2431  10.3158

     occupation numbers 
     1.0000   1.0000   1.0000   1.0000   1.0000   1.0000   1.0000   1.0000
     1.0000   1.0000   1.0000   1.0000   1.0000   1.0000   1.0000   1.0000
     1.0000   1.0000   0.0000   0.0000   0.0000   0.0000   0.0000   0.0000
     0.0000   0.0000

          k = 0.3750-0.0722-0.3759 (  6794 PWs)   bands (ev):

    -6.3162  -6.3134  -6.1751  -6.1721  -3.3607  -3.3590   0.9680   1.0320
     1.8888   1.9660   2.0760   2.1984   3.9039   4.0362   4.4804   4.5572
     5.0664   5.1810   6.9393   7.0488   7.9813   8.0583   8.2867   8.3768
    10.5647  10.6274

     occupation numbers 
     1.0000   1.0000   1.0000   1.0000   1.0000   1.0000   1.0000   1.0000
     1.0000   1.0000   1.0000   1.0000   1.0000   1.0000   1.0000   1.0000
     1.0000   1.0000   0.0000   0.0000   0.0000   0.0000   0.0000   0.0000
     0.0000   0.0000

          k =-0.5000-0.2886 0.0000 (  6796 PWs)   bands (ev):

    -6.6643  -6.6643  -5.0177  -5.0177  -4.0907  -4.0907   1.0210   1.0210
     1.5175   1.5175   2.3524   2.3524   2.5609   2.5609   4.8246   4.8246
     5.1106   5.1106   6.9199   6.9199   7.0379   7.0379   9.0067   9.0067
     9.7314   9.7314

     occupation numbers 
     1.0000   1.0000   1.0000   1.0000   1.0000   1.0000   1.0000   1.0000
     1.0000   1.0000   1.0000   1.0000   1.0000   1.0000   1.0000   1.0000
     1.0000   1.0000   0.0000   0.0000   0.0000   0.0000   0.0000   0.0000
     0.0000   0.0000

          k =-0.5000-0.2886 0.0940 (  6800 PWs)   bands (ev):

    -6.6226  -6.6197  -5.1128  -5.1096  -4.0603  -4.0535   1.0756   1.1048
     1.1632   1.3039   2.2543   2.4333   2.9578   3.1082   4.5963   4.7473
     4.8424   4.9860   6.8599   6.9143   7.3466   7.4901   9.1903   9.2758
     9.4207   9.4376

     occupation numbers 
     1.0000   1.0000   1.0000   1.0000   1.0000   1.0000   1.0000   1.0000
     1.0000   1.0000   1.0000   1.0000   1.0000   1.0000   1.0000   1.0000
     1.0000   1.0000   0.0000   0.0000   0.0000   0.0000   0.0000   0.0000
     0.0000   0.0000

          k =-0.5000-0.2886 0.1879 (  6798 PWs)   bands (ev):

    -6.4985  -6.4930  -5.3469  -5.3404  -3.9903  -3.9816   0.6909   0.7340
     1.3799   1.4801   2.3519   2.4817   3.5816   3.8652   4.2233   4.4085
     4.5370   4.7537   7.0494   7.1639   7.8212   8.1396   8.6427   8.6679
     9.7121   9.8868

     occupation numbers 
     1.0000   1.0000   1.0000   1.0000   1.0000   1.0000   1.0000   1.0000
     1.0000   1.0000   1.0000   1.0000   1.0000   1.0000   1.0000   1.0000
     1.0000   1.0000   0.0000   0.0000   0.0000   0.0000   0.0000   0.0000
     0.0000   0.0000

          k =-0.5000-0.2886 0.2819 (  6818 PWs)   bands (ev):

    -6.3100  -6.3033  -5.6305  -5.6228  -3.9259  -3.9203   0.3799   0.4030
     1.7649   1.8763   2.3865   2.4985   3.5515   3.8697   3.9227   4.1850
     5.0667   5.1929   7.2973   7.3476   7.6337   7.8365   8.3489   8.7012
    10.2503  10.4716

     occupation numbers 
     1.0000   1.0000   1.0000   1.0000   1.0000   1.0000   1.0000   1.0000
     1.0000   1.0000   1.0000   1.0000   1.0000   1.0000   1.0000   1.0000
     1.0000   1.0000   0.0000   0.0000   0.0000   0.0000   0.0000   0.0000
     0.0000   0.0000

          k =-0.5000-0.2886-0.3759 (  6828 PWs)   bands (ev):

    -6.1605  -6.1605  -5.8090  -5.8090  -3.8984  -3.8984   0.2772   0.2772
     2.1559   2.1559   2.2856   2.2856   3.5726   3.5726   3.9338   3.9338
     5.7920   5.7920   6.7527   6.7527   7.8033   7.8033   8.6583   8.6583
    10.5621  10.5621

     occupation numbers 
     1.0000   1.0000   1.0000   1.0000   1.0000   1.0000   1.0000   1.0000
     1.0000   1.0000   1.0000   1.0000   1.0000   1.0000   1.0000   1.0000
     1.0000   1.0000   0.0000   0.0000   0.0000   0.0000   0.0000   0.0000
     0.0000   0.0000

          k =-0.5000-0.1443 0.0000 (  6810 PWs)   bands (ev):

    -6.6821  -6.6814  -4.9064  -4.9022  -4.2080  -4.2044   1.0578   1.1142
     1.4112   1.5186   2.3425   2.5535   2.7520   2.8889   4.2643   4.3368
     4.4788   4.5215   7.4363   7.4724   7.7665   7.7772   9.4111   9.4279
     9.5591   9.5792

     occupation numbers 
     1.0000   1.0000   1.0000   1.0000   1.0000   1.0000   1.0000   1.0000
     1.0000   1.0000   1.0000   1.0000   1.0000   1.0000   1.0000   1.0000
     1.0000   1.0000   0.0000   0.0000   0.0000   0.0000   0.0000   0.0000
     0.0000   0.0000

          k =-0.5000-0.1443 0.0940 (  6806 PWs)   bands (ev):

    -6.6339  -6.6310  -5.0799  -5.0755  -4.0753  -4.0679   0.9305   0.9405
     1.2640   1.3831   2.2859   2.4451   3.3242   3.5511   3.8369   4.0147
     4.8957   4.9654   7.1517   7.2103   7.9909   8.0346   8.9255   8.9450
     9.6284   9.6843

     occupation numbers 
     1.0000   1.0000   1.0000   1.0000   1.0000   1.0000   1.0000   1.0000
     1.0000   1.0000   1.0000   1.0000   1.0000   1.0000   1.0000   1.0000
     1.0000   1.0000   0.0000   0.0000   0.0000   0.0000   0.0000   0.0000
     0.0000   0.0000

          k =-0.5000-0.1443 0.1879 (  6807 PWs)   bands (ev):

    -6.4999  -6.4944  -5.3703  -5.3634  -3.9310  -3.9218   0.6356   0.6810
     1.2826   1.3675   2.3939   2.4880   3.2607   3.4287   4.4242   4.5879
     5.2361   5.4159   6.8525   6.8991   8.0292   8.0717   8.3087   8.4382
     9.9608  10.0637

     occupation numbers 
     1.0000   1.0000   1.0000   1.0000   1.0000   1.0000   1.0000   1.0000
     1.0000   1.0000   1.0000   1.0000   1.0000   1.0000   1.0000   1.0000
     1.0000   1.0000   0.0000   0.0000   0.0000   0.0000   0.0000   0.0000
     0.0000   0.0000

          k =-0.5000-0.1443 0.2819 (  6822 PWs)   bands (ev):

    -6.2937  -6.2862  -5.6836  -5.6749  -3.8446  -3.8386   0.4442   0.4740
     1.4381   1.5129   2.1490   2.2204   3.5492   3.6682   4.8224   4.9394
     5.5906   5.7401   6.7889   6.8282   7.3633   7.4639   8.4177   8.5983
    10.2859  10.4034

     occupation numbers 
     1.0000   1.0000   1.0000   1.0000   1.0000   1.0000   1.0000   1.0000
     1.0000   1.0000   1.0000   1.0000   1.0000   1.0000   1.0000   1.0000
     1.0000   1.0000   0.0000   0.0000   0.0000   0.0000   0.0000   0.0000
     0.0000   0.0000

          k =-0.5000-0.1443-0.3759 (  6834 PWs)   bands (ev):

    -6.1315  -6.1300  -5.8650  -5.8629  -3.8399  -3.8385   0.4333   0.4505
     1.6929   1.7422   1.7849   1.8825   4.0843   4.1867   4.4363   4.4694
     5.6295   5.6826   6.8862   6.9660   7.5977   7.6459   8.3530   8.4138
    10.6746  10.7230

     occupation numbers 
     1.0000   1.0000   1.0000   1.0000   1.0000   1.0000   1.0000   1.0000
     1.0000   1.0000   1.0000   1.0000   1.0000   1.0000   1.0000   1.0000
     1.0000   1.0000   0.0000   0.0000   0.0000   0.0000   0.0000   0.0000
     0.0000   0.0000

          k =-0.5000 0.0000 0.0000 (  6811 PWs)   bands (ev):

    -6.6988  -6.6979  -4.7389  -4.7283  -4.3842  -4.3744   1.1436   1.2673
     1.2685   1.3970   2.5912   2.7883   3.2626   3.3255   3.6328   3.6344
     3.9085   3.9361   8.1692   8.2069   8.5884   8.5885   8.7811   8.7812
    10.4404  10.4509

     occupation numbers 
     1.0000   1.0000   1.0000   1.0000   1.0000   1.0000   1.0000   1.0000
     1.0000   1.0000   1.0000   1.0000   1.0000   1.0000   1.0000   1.0000
     1.0000   1.0000   0.0000   0.0000   0.0000   0.0000   0.0000   0.0000
     0.0000   0.0000

          k =-0.5000 0.0000 0.0940 (  6813 PWs)   bands (ev):

    -6.6543  -6.6515  -4.9530  -4.9475  -4.2120  -4.2033   0.9599   0.9894
     1.4733   1.5572   2.4863   2.6174   2.8891   3.0850   3.7955   3.9231
     4.4834   4.5976   7.8375   7.9541   8.2281   8.3014   8.9567   8.9811
    10.5050  10.5623

     occupation numbers 
     1.0000   1.0000   1.0000   1.0000   1.0000   1.0000   1.0000   1.0000
     1.0000   1.0000   1.0000   1.0000   1.0000   1.0000   1.0000   1.0000
     1.0000   1.0000   0.0000   0.0000   0.0000   0.0000   0.0000   0.0000
     0.0000   0.0000

          k =-0.5000 0.0000 0.1879 (  6813 PWs)   bands (ev):

    -6.5216  -6.5164  -5.3050  -5.2984  -3.9917  -3.9823   0.7976   0.8526
     1.3362   1.4239   2.1731   2.2673   3.0230   3.2064   4.4743   4.5843
     5.2696   5.3990   7.1107   7.1968   7.9022   7.9362   8.8843   8.9244
    10.6822  10.7435

     occupation numbers 
     1.0000   1.0000   1.0000   1.0000   1.0000   1.0000   1.0000   1.0000
     1.0000   1.0000   1.0000   1.0000   1.0000   1.0000   1.0000   1.0000
     1.0000   1.0000   0.0000   0.0000   0.0000   0.0000   0.0000   0.0000
     0.0000   0.0000

          k =-0.5000 0.0000 0.2819 (  6811 PWs)   bands (ev):

    -6.3091  -6.3020  -5.6660  -5.6579  -3.8378  -3.8312   0.7413   0.8072
     1.1775   1.2494   1.7140   1.8008   3.7816   3.9119   5.0893   5.2069
     5.6281   5.7631   6.6383   6.7287   7.5553   7.6000   8.4612   8.5037
    10.8894  10.9130

     occupation numbers 
     1.0000   1.0000   1.0000   1.0000   1.0000   1.0000   1.0000   1.0000
     1.0000   1.0000   1.0000   1.0000   1.0000   1.0000   1.0000   1.0000
     1.0000   1.0000   0.0000   0.0000   0.0000   0.0000   0.0000   0.0000
     0.0000   0.0000

          k =-0.5000 0.0000-0.3759 (  6808 PWs)   bands (ev):

    -6.0854  -6.0815  -5.9377  -5.9331  -3.7809  -3.7790   0.7228   0.7836
     1.2035   1.2373   1.4905   1.5551   4.4102   4.5158   5.1065   5.1379
     5.5323   5.6234   6.7072   6.8090   7.7343   7.7496   7.9055   7.9336
    11.0566  11.0804

     occupation numbers 
     1.0000   1.0000   1.0000   1.0000   1.0000   1.0000   1.0000   1.0000
     1.0000   1.0000   1.0000   1.0000   1.0000   1.0000   1.0000   1.0000
     1.0000   1.0000   0.0000   0.0000   0.0000   0.0000   0.0000   0.0000
     0.0000   0.0000

          k = 0.0000 0.1443-0.0940 (  6810 PWs)   bands (ev):

    -7.5039  -7.5029  -5.0013  -4.9985  -3.6625  -3.6610   2.0208   2.1200
     2.6628   2.8206   2.9277   3.2520   4.2905   4.5134   4.7569   4.7886
     4.9952   5.0521   6.8160   6.9056   7.0687   7.1871   7.7132   7.8083
    10.6853  10.7099

     occupation numbers 
     1.0000   1.0000   1.0000   1.0000   1.0000   1.0000   1.0000   1.0000
     1.0000   1.0000   1.0000   1.0000   1.0000   1.0000   1.0000   1.0000
     1.0000   1.0000   0.0000   0.0000   0.0000   0.0000   0.0000   0.0000
     0.0000   0.0000

          k = 0.0000 0.1443-0.1879 (  6817 PWs)   bands (ev):

    -7.3375  -7.3356  -5.6357  -5.6322  -3.0461  -3.0424   1.9881   2.0511
     2.7500   2.8441   3.0853   3.3879   4.1840   4.3279   4.4509   4.5043
     4.7629   4.9024   6.9203   6.9958   7.1323   7.2693   7.6729   7.7056
    10.5290  10.5614

     occupation numbers 
     1.0000   1.0000   1.0000   1.0000   1.0000   1.0000   1.0000   1.0000
     1.0000   1.0000   1.0000   1.0000   1.0000   1.0000   1.0000   1.0000
     1.0000   1.0000   0.0000   0.0000   0.0000   0.0000   0.0000   0.0000
     0.0000   0.0000

          k = 0.0000 0.1443-0.2819 (  6800 PWs)   bands (ev):

    -7.0624  -7.0597  -6.2003  -6.1967  -2.5837  -2.5800   1.8531   1.9093
     2.8583   3.0244   3.1295   3.4166   3.9992   4.1659   4.3638   4.3861
     4.6898   4.8432   6.8080   6.8794   7.2895   7.3957   7.4379   7.5395
    10.4012  10.4136

     occupation numbers 
     1.0000   1.0000   1.0000   1.0000   1.0000   1.0000   1.0000   1.0000
     1.0000   1.0000   1.0000   1.0000   1.0000   1.0000   1.0000   1.0000
     1.0000   1.0000   0.0000   0.0000   0.0000   0.0000   0.0000   0.0000
     0.0000   0.0000

          k = 0.0000 0.2886-0.0940 (  6806 PWs)   bands (ev):

    -7.2222  -7.2208  -4.9006  -4.8975  -3.8908  -3.8875   1.4314   1.5207
     2.1457   2.3618   2.5235   2.8574   3.6743   3.7646   4.4525   4.7276
     4.9315   5.1015   6.9616   7.0595   7.6078   7.7891   8.3507   8.3581
    10.2762  10.3624

     occupation numbers 
     1.0000   1.0000   1.0000   1.0000   1.0000   1.0000   1.0000   1.0000
     1.0000   1.0000   1.0000   1.0000   1.0000   1.0000   1.0000   1.0000
     1.0000   1.0000   0.0000   0.0000   0.0000   0.0000   0.0000   0.0000
     0.0000   0.0000

          k = 0.0000 0.2886-0.1879 (  6803 PWs)   bands (ev):

    -7.0679  -7.0653  -5.4610  -5.4568  -3.4480  -3.4426   1.6158   1.7129
     2.2012   2.3554   2.8206   3.0658   3.2311   3.4714   4.0840   4.3670
     4.6466   4.8630   7.1844   7.2601   7.9545   8.1368   8.5762   8.5879
    10.6871  10.7834

     occupation numbers 
     1.0000   1.0000   1.0000   1.0000   1.0000   1.0000   1.0000   1.0000
     1.0000   1.0000   1.0000   1.0000   1.0000   1.0000   1.0000   1.0000
     1.0000   1.0000   0.0000   0.0000   0.0000   0.0000   0.0000   0.0000
     0.0000   0.0000

          k = 0.0000 0.2886-0.2819 (  6804 PWs)   bands (ev):

    -6.8133  -6.8098  -5.9776  -5.9732  -3.1167  -3.1121   1.5300   1.6263
     2.3371   2.5656   2.7458   2.8702   3.4115   3.7833   3.9723   4.0733
     4.4730   4.6611   7.2653   7.3286   8.0936   8.1196   8.5508   8.5631
    10.8849  10.9129

     occupation numbers 
     1.0000   1.0000   1.0000   1.0000   1.0000   1.0000   1.0000   1.0000
     1.0000   1.0000   1.0000   1.0000   1.0000   1.0000   1.0000   1.0000
     1.0000   1.0000   0.0000   0.0000   0.0000   0.0000   0.0000   0.0000
     0.0000   0.0000

          k = 0.0000 0.4330-0.0940 (  6795 PWs)   bands (ev):

    -6.8469  -6.8447  -4.9106  -4.9069  -4.1274  -4.1210   1.1865   1.2894
     1.6723   1.7682   2.4427   2.6302   2.6692   2.8524   4.5482   4.7148
     4.9150   5.0013   6.9028   6.9659   7.4791   7.6641   9.3956   9.4169
     9.6092   9.6959

     occupation numbers 
     1.0000   1.0000   1.0000   1.0000   1.0000   1.0000   1.0000   1.0000
     1.0000   1.0000   1.0000   1.0000   1.0000   1.0000   1.0000   1.0000
     1.0000   1.0000   0.0000   0.0000   0.0000   0.0000   0.0000   0.0000
     0.0000   0.0000

          k = 0.0000 0.4330-0.1879 (  6816 PWs)   bands (ev):

    -6.7152  -6.7113  -5.2886  -5.2834  -3.9177  -3.9102   1.2081   1.3001
     1.6109   1.7310   2.5051   2.6512   3.0456   3.3320   4.0713   4.3436
     4.5332   4.7558   7.1616   7.2910   7.9641   8.2651   9.1720   9.1926
    10.1411  10.3015

     occupation numbers 
     1.0000   1.0000   1.0000   1.0000   1.0000   1.0000   1.0000   1.0000
     1.0000   1.0000   1.0000   1.0000   1.0000   1.0000   1.0000   1.0000
     1.0000   1.0000   0.0000   0.0000   0.0000   0.0000   0.0000   0.0000
     0.0000   0.0000

          k = 0.0000 0.4330-0.2819 (  6815 PWs)   bands (ev):

    -6.5010  -6.4961  -5.7011  -5.6954  -3.7156  -3.7101   0.8436   0.8885
     1.9801   2.1218   2.4293   2.5616   3.4795   3.7942   3.9091   4.0959
     4.4233   4.6678   7.4942   7.5231   8.2945   8.3945   8.5706   8.6942
    10.5684  10.6716

     occupation numbers 
     1.0000   1.0000   1.0000   1.0000   1.0000   1.0000   1.0000   1.0000
     1.0000   1.0000   1.0000   1.0000   1.0000   1.0000   1.0000   1.0000
     1.0000   1.0000   0.0000   0.0000   0.0000   0.0000   0.0000   0.0000
     0.0000   0.0000

          k =-0.1250 0.0722-0.0940 (  6810 PWs)   bands (ev):

    -7.5031  -7.5021  -5.0146  -5.0118  -3.6384  -3.6370   2.0917   2.2407
     2.2727   2.4536   2.9943   3.2228   4.5919   4.7610   4.8753   5.0061
     5.3069   5.3456   6.5913   6.6093   6.8739   6.9671   7.5036   7.5621
    10.3166  10.3354

     occupation numbers 
     1.0000   1.0000   1.0000   1.0000   1.0000   1.0000   1.0000   1.0000
     1.0000   1.0000   1.0000   1.0000   1.0000   1.0000   1.0000   1.0000
     1.0000   1.0000   0.0001   0.0000   0.0000   0.0000   0.0000   0.0000
     0.0000   0.0000

          k =-0.1250 0.0722-0.1879 (  6818 PWs)   bands (ev):

    -7.3358  -7.3338  -5.6451  -5.6415  -3.0192  -3.0155   1.9985   2.0438
     2.3793   2.4841   3.0680   3.2928   4.6058   4.7202   4.8113   4.8723
     5.0078   5.1278   6.6264   6.6745   6.7302   6.8576   7.5732   7.5928
    10.1417  10.1642

     occupation numbers 
     1.0000   1.0000   1.0000   1.0000   1.0000   1.0000   1.0000   1.0000
     1.0000   1.0000   1.0000   1.0000   1.0000   1.0000   1.0000   1.0000
     1.0000   1.0000   0.0000   0.0000   0.0000   0.0000   0.0000   0.0000
     0.0000   0.0000

          k =-0.1250 0.0722-0.2819 (  6800 PWs)   bands (ev):

    -7.0595  -7.0568  -6.2068  -6.2031  -2.5635  -2.5599   1.7979   1.8622
     2.6055   2.7794   3.1074   3.3375   4.3668   4.4664   4.5857   4.6571
     4.8464   4.9833   6.5905   6.6673   6.8676   6.9698   7.6123   7.6198
    10.1696  10.1899

     occupation numbers 
     1.0000   1.0000   1.0000   1.0000   1.0000   1.0000   1.0000   1.0000
     1.0000   1.0000   1.0000   1.0000   1.0000   1.0000   1.0000   1.0000
     1.0000   1.0000   0.0001   0.0000   0.0000   0.0000   0.0000   0.0000
     0.0000   0.0000

          k =-0.1250 0.2165-0.0940 (  6791 PWs)   bands (ev):

    -7.3098  -7.3085  -4.9593  -4.9562  -3.7619  -3.7593   1.5527   1.6563
     1.8911   1.9720   2.9450   3.1109   4.2808   4.3338   4.4803   4.5832
     5.4083   5.4684   6.8081   6.8583   7.4090   7.4916   7.6876   7.7434
    10.2718  10.2926

     occupation numbers 
     1.0000   1.0000   1.0000   1.0000   1.0000   1.0000   1.0000   1.0000
     1.0000   1.0000   1.0000   1.0000   1.0000   1.0000   1.0000   1.0000
     1.0000   1.0000   0.0000   0.0000   0.0000   0.0000   0.0000   0.0000
     0.0000   0.0000

          k =-0.1250 0.2165-0.1879 (  6798 PWs)   bands (ev):

    -7.1487  -7.1463  -5.5382  -5.5342  -3.2626  -3.2577   1.6124   1.7014
     1.9583   2.0770   2.9344   3.0941   3.8230   3.9031   4.6167   4.7490
     5.1929   5.2938   6.8336   6.8584   7.5319   7.6121   7.8601   7.9067
    10.2311  10.2470

     occupation numbers 
     1.0000   1.0000   1.0000   1.0000   1.0000   1.0000   1.0000   1.0000
     1.0000   1.0000   1.0000   1.0000   1.0000   1.0000   1.0000   1.0000
     1.0000   1.0000   0.0000   0.0000   0.0000   0.0000   0.0000   0.0000
     0.0000   0.0000

          k =-0.1250 0.2165-0.2819 (  6803 PWs)   bands (ev):

    -6.8837  -6.8804  -6.0649  -6.0606  -2.9122  -2.9079   1.5652   1.6695
     2.1574   2.3351   2.8598   3.0022   3.6079   3.7654   4.6412   4.6659
     4.9360   5.0100   6.7296   6.7877   7.7830   7.8173   8.0505   8.0930
    10.4113  10.4253

     occupation numbers 
     1.0000   1.0000   1.0000   1.0000   1.0000   1.0000   1.0000   1.0000
     1.0000   1.0000   1.0000   1.0000   1.0000   1.0000   1.0000   1.0000
     1.0000   1.0000   0.0000   0.0000   0.0000   0.0000   0.0000   0.0000
     0.0000   0.0000

          k =-0.1250 0.3608-0.0940 (  6802 PWs)   bands (ev):

    -6.9736  -6.9717  -4.8904  -4.8860  -4.0441  -4.0382   1.1918   1.2756
     1.6465   1.7042   2.6857   2.8484   3.2348   3.3950   3.9934   4.1281
     5.2497   5.2917   6.9703   7.0307   7.8698   7.9358   8.8476   8.8651
    10.1352  10.1885

     occupation numbers 
     1.0000   1.0000   1.0000   1.0000   1.0000   1.0000   1.0000   1.0000
     1.0000   1.0000   1.0000   1.0000   1.0000   1.0000   1.0000   1.0000
     1.0000   1.0000   0.0000   0.0000   0.0000   0.0000   0.0000   0.0000
     0.0000   0.0000

          k =-0.1250 0.3608-0.1879 (  6809 PWs)   bands (ev):

    -6.8295  -6.8261  -5.3591  -5.3542  -3.7220  -3.7149   1.2568   1.3506
     1.6682   1.7640   2.6172   2.8050   2.9158   3.2889   4.1422   4.2972
     5.2997   5.3791   6.9367   6.9660   7.9218   8.0268   8.9368   8.9660
    10.4985  10.5631

     occupation numbers 
     1.0000   1.0000   1.0000   1.0000   1.0000   1.0000   1.0000   1.0000
     1.0000   1.0000   1.0000   1.0000   1.0000   1.0000   1.0000   1.0000
     1.0000   1.0000   0.0000   0.0000   0.0000   0.0000   0.0000   0.0000
     0.0000   0.0000

          k =-0.1250 0.3608-0.2819 (  6814 PWs)   bands (ev):

    -6.5939  -6.5894  -5.8147  -5.8091  -3.4798  -3.4744   1.1547   1.2486
     1.7184   1.8210   2.2931   2.4048   3.4912   3.7214   4.4758   4.6105
     4.8409   4.9934   7.1522   7.1906   8.0096   8.0337   8.6557   8.6822
    10.7735  10.7879

     occupation numbers 
     1.0000   1.0000   1.0000   1.0000   1.0000   1.0000   1.0000   1.0000
     1.0000   1.0000   1.0000   1.0000   1.0000   1.0000   1.0000   1.0000
     1.0000   1.0000   0.0000   0.0000   0.0000   0.0000   0.0000   0.0000
     0.0000   0.0000

          k =-0.1250 0.5051-0.0940 (  6806 PWs)   bands (ev):

    -6.6438  -6.6410  -4.9925  -4.9886  -4.1892  -4.1814   1.0773   1.1290
     1.4311   1.4816   2.3513   2.4772   2.8338   3.0505   3.7924   3.9157
     5.0343   5.0864   7.0702   7.1295   7.9813   8.0437   9.4418   9.4629
     9.7720   9.8412

     occupation numbers 
     1.0000   1.0000   1.0000   1.0000   1.0000   1.0000   1.0000   1.0000
     1.0000   1.0000   1.0000   1.0000   1.0000   1.0000   1.0000   1.0000
     1.0000   1.0000   0.0000   0.0000   0.0000   0.0000   0.0000   0.0000
     0.0000   0.0000

          k =-0.1250 0.5051-0.1879 (  6806 PWs)   bands (ev):

    -6.5203  -6.5152  -5.2786  -5.2725  -4.0536  -4.0446   0.9351   1.0108
     1.2420   1.3200   2.3881   2.5068   3.1121   3.4862   3.8328   4.0700
     5.2773   5.3708   6.9022   6.9169   8.1895   8.3274   8.9603   8.9954
    10.1191  10.2202

     occupation numbers 
     1.0000   1.0000   1.0000   1.0000   1.0000   1.0000   1.0000   1.0000
     1.0000   1.0000   1.0000   1.0000   1.0000   1.0000   1.0000   1.0000
     1.0000   1.0000   0.0000   0.0000   0.0000   0.0000   0.0000   0.0000
     0.0000   0.0000

          k =-0.1250 0.5051-0.2819 (  6822 PWs)   bands (ev):

    -6.3244  -6.3181  -5.6140  -5.6067  -3.9197  -3.9135   0.6115   0.6508
     1.4301   1.4915   2.1056   2.1757   3.6838   3.8739   4.4651   4.6306
     5.0038   5.1938   7.1971   7.2186   7.9830   8.0704   8.3785   8.5055
    10.5301  10.6086

     occupation numbers 
     1.0000   1.0000   1.0000   1.0000   1.0000   1.0000   1.0000   1.0000
     1.0000   1.0000   1.0000   1.0000   1.0000   1.0000   1.0000   1.0000
     1.0000   1.0000   0.0000   0.0000   0.0000   0.0000   0.0000   0.0000
     0.0000   0.0000

          k =-0.2500 0.1443-0.0940 (  6807 PWs)   bands (ev):

    -7.2158  -7.2143  -4.9964  -4.9930  -3.7373  -3.7340   1.2615   1.3008
     1.6981   1.8022   2.6250   2.7807   4.5606   4.7690   4.9049   5.1664
     5.2992   5.5050   6.6982   6.7382   6.9691   7.0556   7.5322   7.5926
     9.5951   9.6041

     occupation numbers 
     1.0000   1.0000   1.0000   1.0000   1.0000   1.0000   1.0000   1.0000
     1.0000   1.0000   1.0000   1.0000   1.0000   1.0000   1.0000   1.0000
     1.0000   1.0000   0.0000   0.0000   0.0000   0.0000   0.0000   0.0000
     0.0000   0.0000

          k =-0.2500 0.1443-0.1879 (  6804 PWs)   bands (ev):

    -7.0544  -7.0517  -5.5314  -5.5270  -3.2932  -3.2876   1.2504   1.3171
     1.6338   1.7632   2.7265   2.8666   4.4215   4.5015   4.7746   4.8796
     5.6619   5.7217   6.5491   6.6392   7.1553   7.2570   7.4132   7.5120
     9.6301   9.6767

     occupation numbers 
     1.0000   1.0000   1.0000   1.0000   1.0000   1.0000   1.0000   1.0000
     1.0000   1.0000   1.0000   1.0000   1.0000   1.0000   1.0000   1.0000
     1.0000   1.0000   0.0003   0.0000   0.0000   0.0000   0.0000   0.0000
     0.0000   0.0000

          k =-0.2500 0.1443-0.2819 (  6804 PWs)   bands (ev):

    -6.7913  -6.7874  -6.0271  -6.0221  -3.0144  -3.0100   1.2210   1.3023
     1.8717   2.0359   2.8041   2.9367   4.0984   4.2330   4.4014   4.5015
     5.2442   5.2798   6.8076   7.0000   7.4686   7.6085   7.7101   7.8630
     9.9539  10.0287

     occupation numbers 
     1.0000   1.0000   1.0000   1.0000   1.0000   1.0000   1.0000   1.0000
     1.0000   1.0000   1.0000   1.0000   1.0000   1.0000   1.0000   1.0000
     1.0000   1.0000   0.0000   0.0000   0.0000   0.0000   0.0000   0.0000
     0.0000   0.0000

          k =-0.2500 0.2886-0.0940 (  6802 PWs)   bands (ev):

    -6.9666  -6.9646  -4.9848  -4.9805  -3.9076  -3.9021   1.0112   1.0436
     1.4715   1.5511   2.5442   2.6816   3.8694   3.9750   4.4412   4.6162
     4.8902   5.0589   7.1656   7.2399   7.7927   7.8402   7.9938   8.0127
     9.7861   9.8078

     occupation numbers 
     1.0000   1.0000   1.0000   1.0000   1.0000   1.0000   1.0000   1.0000
     1.0000   1.0000   1.0000   1.0000   1.0000   1.0000   1.0000   1.0000
     1.0000   1.0000   0.0000   0.0000   0.0000   0.0000   0.0000   0.0000
     0.0000   0.0000

          k =-0.2500 0.2886-0.1879 (  6809 PWs)   bands (ev):

    -6.8147  -6.8111  -5.4341  -5.4287  -3.5908  -3.5834   0.9086   0.9597
     1.5246   1.6262   2.5786   2.6916   3.4280   3.5227   4.8810   5.0467
     5.5338   5.7035   6.6349   6.7069   7.3925   7.4353   8.1885   8.2774
     9.9537  10.0086

     occupation numbers 
     1.0000   1.0000   1.0000   1.0000   1.0000   1.0000   1.0000   1.0000
     1.0000   1.0000   1.0000   1.0000   1.0000   1.0000   1.0000   1.0000
     1.0000   1.0000   0.0000   0.0000   0.0000   0.0000   0.0000   0.0000
     0.0000   0.0000

          k =-0.2500 0.2886-0.2819 (  6814 PWs)   bands (ev):

    -6.5701  -6.5649  -5.8684  -5.8621  -3.3981  -3.3928   0.8816   0.9387
     1.6552   1.7648   2.4232   2.5218   3.4632   3.5871   4.9993   5.0410
     5.5528   5.5770   6.6148   6.7250   7.4149   7.4526   8.3321   8.4576
    10.2431  10.3158

     occupation numbers 
     1.0000   1.0000   1.0000   1.0000   1.0000   1.0000   1.0000   1.0000
     1.0000   1.0000   1.0000   1.0000   1.0000   1.0000   1.0000   1.0000
     1.0000   1.0000   0.0000   0.0000   0.0000   0.0000   0.0000   0.0000
     0.0000   0.0000

          k =-0.2500 0.4330-0.0940 (  6813 PWs)   bands (ev):

    -6.6545  -6.6516  -4.9530  -4.9474  -4.2119  -4.2033   0.9600   0.9895
     1.4734   1.5574   2.4864   2.6174   2.8891   3.0850   3.7955   3.9231
     4.4836   4.5978   7.8379   7.9545   8.2287   8.3020   8.9564   8.9807
    10.5053  10.5626

     occupation numbers 
     1.0000   1.0000   1.0000   1.0000   1.0000   1.0000   1.0000   1.0000
     1.0000   1.0000   1.0000   1.0000   1.0000   1.0000   1.0000   1.0000
     1.0000   1.0000   0.0000   0.0000   0.0000   0.0000   0.0000   0.0000
     0.0000   0.0000

          k =-0.2500 0.4330-0.1879 (  6813 PWs)   bands (ev):

    -6.5217  -6.5165  -5.3050  -5.2984  -3.9917  -3.9823   0.7977   0.8527
     1.3362   1.4239   2.1730   2.2672   3.0232   3.2066   4.4745   4.5844
     5.2698   5.3993   7.1109   7.1971   7.9027   7.9367   8.8839   8.9239
    10.6823  10.7442

     occupation numbers 
     1.0000   1.0000   1.0000   1.0000   1.0000   1.0000   1.0000   1.0000
     1.0000   1.0000   1.0000   1.0000   1.0000   1.0000   1.0000   1.0000
     1.0000   1.0000   0.0000   0.0000   0.0000   0.0000   0.0000   0.0000
     0.0000   0.0000

          k =-0.2500 0.4330-0.2819 (  6810 PWs)   bands (ev):

    -6.3092  -6.3022  -5.6660  -5.6579  -3.8377  -3.8312   0.7415   0.8074
     1.1774   1.2494   1.7139   1.8007   3.7819   3.9121   5.0896   5.2071
     5.6285   5.7635   6.6383   6.7287   7.5557   7.6004   8.4607   8.5032
    10.8896  10.9132

     occupation numbers 
     1.0000   1.0000   1.0000   1.0000   1.0000   1.0000   1.0000   1.0000
     1.0000   1.0000   1.0000   1.0000   1.0000   1.0000   1.0000   1.0000
     1.0000   1.0000   0.0000   0.0000   0.0000   0.0000   0.0000   0.0000
     0.0000   0.0000

          k =-0.3750 0.2165-0.0940 (  6795 PWs)   bands (ev):

    -6.8313  -6.8290  -5.0800  -5.0758  -3.8876  -3.8815   0.8810   0.8920
     1.2913   1.4039   2.3312   2.4833   3.8379   4.0141   4.6864   4.9026
     4.9797   5.0756   6.8281   6.9190   7.2359   7.3151   8.5079   8.5285
     9.1862   9.2412

     occupation numbers 
     1.0000   1.0000   1.0000   1.0000   1.0000   1.0000   1.0000   1.0000
     1.0000   1.0000   1.0000   1.0000   1.0000   1.0000   1.0000   1.0000
     1.0000   1.0000   0.0000   0.0000   0.0000   0.0000   0.0000   0.0000
     0.0000   0.0000

          k =-0.3750 0.2165-0.1879 (  6816 PWs)   bands (ev):

    -6.6826  -6.6782  -5.4461  -5.4400  -3.6710  -3.6630   0.6555   0.6975
     1.3859   1.4878   2.4486   2.5703   4.0676   4.2271   4.5636   4.6068
     5.1057   5.2900   6.9141   6.9441   7.5765   7.6288   7.7598   7.9869
     9.5082   9.6394

     occupation numbers 
     1.0000   1.0000   1.0000   1.0000   1.0000   1.0000   1.0000   1.0000
     1.0000   1.0000   1.0000   1.0000   1.0000   1.0000   1.0000   1.0000
     1.0000   1.0000   0.0000   0.0000   0.0000   0.0000   0.0000   0.0000
     0.0000   0.0000

          k =-0.3750 0.2165-0.2819 (  6815 PWs)   bands (ev):

    -6.4503  -6.4439  -5.8167  -5.8091  -3.5645  -3.5591   0.5297   0.5614
     1.7110   1.8250   2.5247   2.6343   3.7442   3.9942   4.0911   4.2867
     5.7829   5.8267   6.7193   6.7610   7.3887   7.5564   8.0723   8.4471
    10.0137  10.1991

     occupation numbers 
     1.0000   1.0000   1.0000   1.0000   1.0000   1.0000   1.0000   1.0000
     1.0000   1.0000   1.0000   1.0000   1.0000   1.0000   1.0000   1.0000
     1.0000   1.0000   0.0000   0.0000   0.0000   0.0000   0.0000   0.0000
     0.0000   0.0000

          k =-0.3750 0.3608-0.0940 (  6806 PWs)   bands (ev):

    -6.6339  -6.6310  -5.0799  -5.0755  -4.0753  -4.0679   0.9305   0.9404
     1.2641   1.3831   2.2859   2.4451   3.3243   3.5512   3.8369   4.0148
     4.8958   4.9656   7.1519   7.2105   7.9907   8.0343   8.9257   8.9452
     9.6283   9.6842

     occupation numbers 
     1.0000   1.0000   1.0000   1.0000   1.0000   1.0000   1.0000   1.0000
     1.0000   1.0000   1.0000   1.0000   1.0000   1.0000   1.0000   1.0000
     1.0000   1.0000   0.0000   0.0000   0.0000   0.0000   0.0000   0.0000
     0.0000   0.0000

          k =-0.3750 0.3608-0.1879 (  6805 PWs)   bands (ev):

    -6.5000  -6.4945  -5.3703  -5.3634  -3.9309  -3.9218   0.6356   0.6810
     1.2824   1.3672   2.3940   2.4881   3.2608   3.4289   4.4243   4.5880
     5.2362   5.4160   6.8527   6.8993   8.0294   8.0718   8.3085   8.4379
     9.9606  10.0635

     occupation numbers 
     1.0000   1.0000   1.0000   1.0000   1.0000   1.0000   1.0000   1.0000
     1.0000   1.0000   1.0000   1.0000   1.0000   1.0000   1.0000   1.0000
     1.0000   1.0000   0.0000   0.0000   0.0000   0.0000   0.0000   0.0000
     0.0000   0.0000

          k =-0.3750 0.3608-0.2819 (  6822 PWs)   bands (ev):

    -6.2938  -6.2863  -5.6836  -5.6749  -3.8446  -3.8385   0.4442   0.4741
     1.4378   1.5126   2.1491   2.2205   3.5495   3.6686   4.8224   4.9393
     5.5906   5.7401   6.7892   6.8285   7.3635   7.4641   8.4172   8.5979
    10.2859  10.4033

     occupation numbers 
     1.0000   1.0000   1.0000   1.0000   1.0000   1.0000   1.0000   1.0000
     1.0000   1.0000   1.0000   1.0000   1.0000   1.0000   1.0000   1.0000
     1.0000   1.0000   0.0000   0.0000   0.0000   0.0000   0.0000   0.0000
     0.0000   0.0000

          k =-0.3750 0.5051-0.0940 (  6813 PWs)   bands (ev):

    -6.4884  -6.4850  -4.9749  -4.9713  -4.3391  -4.3302   1.0181   1.0269
     1.3815   1.5303   2.3452   2.5065   2.7490   3.0254   3.4774   3.6071
     4.2462   4.3603   8.0720   8.1477   8.7154   8.7383   9.0714   9.1072
    10.5505  10.5819

     occupation numbers 
     1.0000   1.0000   1.0000   1.0000   1.0000   1.0000   1.0000   1.0000
     1.0000   1.0000   1.0000   1.0000   1.0000   1.0000   1.0000   1.0000
     1.0000   1.0000   0.0000   0.0000   0.0000   0.0000   0.0000   0.0000
     0.0000   0.0000

          k =-0.3750 0.5051-0.1879 (  6811 PWs)   bands (ev):

    -6.3653  -6.3588  -5.2745  -5.2675  -4.1543  -4.1440   0.7884   0.8410
     1.1084   1.1942   1.9229   2.0107   3.2377   3.4167   4.3039   4.3974
     5.0289   5.1857   7.4033   7.4863   8.3418   8.3844   8.6082   8.6858
    10.7396  10.7697

     occupation numbers 
     1.0000   1.0000   1.0000   1.0000   1.0000   1.0000   1.0000   1.0000
     1.0000   1.0000   1.0000   1.0000   1.0000   1.0000   1.0000   1.0000
     1.0000   1.0000   0.0000   0.0000   0.0000   0.0000   0.0000   0.0000
     0.0000   0.0000

          k =-0.3750 0.5051-0.2819 (  6811 PWs)   bands (ev):

    -6.1693  -6.1606  -5.5897  -5.5802  -4.0214  -4.0144   0.6453   0.7004
     0.9650   1.0271   1.4466   1.5289   4.0676   4.1922   5.0911   5.2467
     5.6311   5.8741   6.7027   6.7906   7.6252   7.7144   8.1307   8.1763
    11.1039  11.1172

     occupation numbers 
     1.0000   1.0000   1.0000   1.0000   1.0000   1.0000   1.0000   1.0000
     1.0000   1.0000   1.0000   1.0000   1.0000   1.0000   1.0000   1.0000
     1.0000   0.9998   0.0000   0.0000   0.0000   0.0000   0.0000   0.0000
     0.0000   0.0000

          k =-0.3750-0.0722-0.0940 (  6803 PWs)   bands (ev):

    -6.9734  -6.9715  -4.8904  -4.8860  -4.0440  -4.0381   1.1917   1.2754
     1.6462   1.7039   2.6855   2.8483   3.2348   3.3950   3.9934   4.1281
     5.2494   5.2914   6.9700   7.0304   7.8690   7.9350   8.8480   8.8655
    10.1350  10.1882

     occupation numbers 
     1.0000   1.0000   1.0000   1.0000   1.0000   1.0000   1.0000   1.0000
     1.0000   1.0000   1.0000   1.0000   1.0000   1.0000   1.0000   1.0000
     1.0000   1.0000   0.0000   0.0000   0.0000   0.0000   0.0000   0.0000
     0.0000   0.0000

          k =-0.3750-0.0722-0.1879 (  6809 PWs)   bands (ev):

    -6.8293  -6.8259  -5.3592  -5.3542  -3.7219  -3.7148   1.2566   1.3504
     1.6681   1.7639   2.6171   2.8050   2.9156   3.2888   4.1420   4.2970
     5.2994   5.3788   6.9366   6.9659   7.9211   8.0261   8.9373   8.9665
    10.4983  10.5630

     occupation numbers 
     1.0000   1.0000   1.0000   1.0000   1.0000   1.0000   1.0000   1.0000
     1.0000   1.0000   1.0000   1.0000   1.0000   1.0000   1.0000   1.0000
     1.0000   1.0000   0.0000   0.0000   0.0000   0.0000   0.0000   0.0000
     0.0000   0.0000

          k =-0.3750-0.0722-0.2819 (  6814 PWs)   bands (ev):

    -6.5937  -6.5892  -5.8147  -5.8091  -3.4798  -3.4744   1.1546   1.2485
     1.7183   1.8208   2.2932   2.4049   3.4910   3.7212   4.4754   4.6100
     4.8406   4.9931   7.1521   7.1905   8.0092   8.0333   8.6563   8.6828
    10.7732  10.7876

     occupation numbers 
     1.0000   1.0000   1.0000   1.0000   1.0000   1.0000   1.0000   1.0000
     1.0000   1.0000   1.0000   1.0000   1.0000   1.0000   1.0000   1.0000
     1.0000   1.0000   0.0000   0.0000   0.0000   0.0000   0.0000   0.0000
     0.0000   0.0000

          k = 0.5000-0.1443-0.0940 (  6806 PWs)   bands (ev):

    -6.6436  -6.6408  -4.9923  -4.9884  -4.1893  -4.1816   1.0772   1.1289
     1.4310   1.4815   2.3511   2.4770   2.8336   3.0503   3.7923   3.9156
     5.0339   5.0861   7.0697   7.1290   7.9806   8.0430   9.4422   9.4634
     9.7716   9.8408

     occupation numbers 
     1.0000   1.0000   1.0000   1.0000   1.0000   1.0000   1.0000   1.0000
     1.0000   1.0000   1.0000   1.0000   1.0000   1.0000   1.0000   1.0000
     1.0000   1.0000   0.0000   0.0000   0.0000   0.0000   0.0000   0.0000
     0.0000   0.0000

          k = 0.5000-0.1443-0.1879 (  6807 PWs)   bands (ev):

    -6.5201  -6.5150  -5.2785  -5.2724  -4.0537  -4.0447   0.9349   1.0106
     1.2419   1.3199   2.3879   2.5065   3.1120   3.4861   3.8326   4.0698
     5.2768   5.3704   6.9020   6.9166   8.1889   8.3268   8.9607   8.9959
    10.1188  10.2199

     occupation numbers 
     1.0000   1.0000   1.0000   1.0000   1.0000   1.0000   1.0000   1.0000
     1.0000   1.0000   1.0000   1.0000   1.0000   1.0000   1.0000   1.0000
     1.0000   1.0000   0.0000   0.0000   0.0000   0.0000   0.0000   0.0000
     0.0000   0.0000

          k = 0.5000-0.1443-0.2819 (  6822 PWs)   bands (ev):

    -6.3242  -6.3178  -5.6140  -5.6067  -3.9197  -3.9135   0.6114   0.6507
     1.4299   1.4912   2.1054   2.1756   3.6836   3.8738   4.4647   4.6303
     5.0035   5.1935   7.1971   7.2186   7.9831   8.0705   8.3782   8.5052
    10.5299  10.6084

     occupation numbers 
     1.0000   1.0000   1.0000   1.0000   1.0000   1.0000   1.0000   1.0000
     1.0000   1.0000   1.0000   1.0000   1.0000   1.0000   1.0000   1.0000
     1.0000   1.0000   0.0000   0.0000   0.0000   0.0000   0.0000   0.0000
     0.0000   0.0000

     the Fermi energy is     6.2190 ev

!    total energy              =     -85.64384400 Ry
     estimated scf accuracy    <          5.3E-09 Ry
     smearing contrib. (-TS)   =      -0.00001180 Ry
     internal energy E=F+TS    =     -85.64383221 Ry

     The total energy is F=E-TS. E is the sum of the following terms:
     one-electron contribution =      10.16263611 Ry
     hartree contribution      =       3.37536973 Ry
     xc contribution           =     -49.70176179 Ry
     ewald contribution        =     -49.48007626 Ry

     convergence has been achieved in   8 iterations


     Computing stress (Cartesian axis) and pressure

          total   stress  (Ry/bohr**3)                   (kbar)     P=       23.96
   0.00014147   0.00000000   0.00000000           20.81        0.00        0.00
   0.00000000   0.00014120   0.00000016            0.00       20.77        0.02
   0.00000000   0.00000016   0.00020591            0.00        0.02       30.29

     kinetic stress (kbar)   2339.47     -0.00      0.00
                               -0.00   2339.43     -0.00
                                0.00     -0.00   2212.49

     local   stress (kbar)    156.34     -0.00     -0.00
                               -0.00    156.64     -0.31
                               -0.00     -0.31   -576.36

     nonloc. stress (kbar)   2368.79      0.00      0.00
                                0.00   2368.78      0.01
                                0.00      0.01   2358.97

     hartree stress (kbar)    181.37      0.00      0.00
                                0.00    181.29      0.07
                                0.00      0.07    358.57

     exc-cor stress (kbar)   6994.98      0.00      0.00
                                0.00   6994.98      0.00
                                0.00      0.00   6997.38

     corecor stress (kbar)  -8265.60     -0.00     -0.00
                               -0.00  -8265.60     -0.00
                               -0.00     -0.00  -8257.41

     ewald   stress (kbar)  -3754.54      0.00      0.00
                                0.00  -3754.75      0.26
                                0.00      0.26  -3063.36

     hubbard stress (kbar)      0.00      0.00      0.00
                                0.00      0.00      0.00
                                0.00      0.00      0.00

     DFT-D   stress (kbar)      0.00      0.00      0.00
                                0.00      0.00      0.00
                                0.00      0.00      0.00

     XDM     stress (kbar)      0.00      0.00      0.00
                                0.00      0.00      0.00
                                0.00      0.00      0.00

     dft-nl  stress (kbar)      0.00      0.00      0.00
                                0.00      0.00      0.00
                                0.00      0.00      0.00

     TS-vdW  stress (kbar)      0.00      0.00      0.00
                                0.00      0.00      0.00
                                0.00      0.00      0.00

     MDB     stress (kbar)      0.00      0.00      0.00
                                0.00      0.00      0.00
                                0.00      0.00      0.00

     3D-RISM stress (kbar)      0.00      0.00      0.00
                                0.00      0.00      0.00
                                0.00      0.00      0.00


     Writing all to output data dir /home/user/workspace/qe_runs/strain_0/conv_out/te0_conv.save/ :
     XML data file, charge density, pseudopotentials, collected wavefunctions

     init_run     :     11.71s CPU     12.51s WALL (       1 calls)
     electrons    :    411.40s CPU    424.41s WALL (       1 calls)
     stress       :     19.28s CPU     20.12s WALL (       1 calls)

     Called by init_run:
     wfcinit      :     10.35s CPU     10.69s WALL (       1 calls)
     wfcinit:atom :      0.11s CPU      0.11s WALL (     150 calls)
     wfcinit:wfcr :      9.88s CPU     10.21s WALL (     150 calls)
     potinit      :      0.19s CPU      0.21s WALL (       1 calls)
     hinit0       :      0.51s CPU      0.51s WALL (       1 calls)

     Called by electrons:
     c_bands      :    350.94s CPU    356.68s WALL (       8 calls)
     sum_band     :     54.73s CPU     60.07s WALL (       8 calls)
     v_of_rho     :      0.56s CPU      0.58s WALL (       9 calls)
     v_h          :      0.04s CPU      0.04s WALL (       9 calls)
     v_xc         :      0.58s CPU      0.60s WALL (      10 calls)
     newd         :      5.35s CPU      7.65s WALL (       9 calls)
     mix_rho      :      0.29s CPU      0.31s WALL (       8 calls)

     Called by c_bands:
     init_us_2    :      4.52s CPU      4.55s WALL (    2700 calls)
     cegterg      :    305.08s CPU    310.72s WALL (    1200 calls)

     Called by sum_band:
     sum_band:wei :      0.03s CPU      0.03s WALL (       8 calls)
     sum_band:loo :     48.90s CPU     49.90s WALL (       8 calls)
     sum_band:buf :      0.95s CPU      0.96s WALL (    1200 calls)
     sum_band:ini :      2.07s CPU      2.09s WALL (    1200 calls)
     sum_band:cal :      4.12s CPU      4.17s WALL (    1200 calls)
     sum_band:bec :      2.86s CPU      2.86s WALL (    1200 calls)
     addusdens    :      5.37s CPU      9.71s WALL (       8 calls)
                                        0.00s GPU  (       8 calls)
     addusd:skk   :      0.01s CPU      0.01s WALL (       8 calls)
                                        0.00s GPU  (       8 calls)

     Called by *egterg:
     cdiaghg      :      5.17s CPU      5.20s WALL (    6920 calls)
     cegterg:over :     13.40s CPU     13.53s WALL (    5720 calls)
     cegterg:upda :      7.58s CPU      7.61s WALL (    5720 calls)
     cegterg:last :     14.96s CPU     15.00s WALL (    3407 calls)
     h_psi        :    251.09s CPU    256.76s WALL (    7070 calls)
     s_psi        :     13.11s CPU     13.17s WALL (    7070 calls)
     g_psi        :      2.65s CPU      2.65s WALL (    5720 calls)

     Called by h_psi:
     h_psi:calbec :     15.78s CPU     16.06s WALL (    7070 calls)
     vloc_psi     :    221.28s CPU    226.59s WALL (    7070 calls)
                                        0.00s GPU  (    7070 calls)
     add_vuspsi   :     12.54s CPU     12.62s WALL (    7070 calls)

     General routines
     calbec       :     26.38s CPU     26.78s WALL (   10220 calls)
     fft          :      0.60s CPU      0.62s WALL (     228 calls)
     ffts         :      0.15s CPU      0.15s WALL (      68 calls)
     fftw         :    226.99s CPU    232.43s WALL (  496908 calls)
     interpolate  :      0.21s CPU      0.21s WALL (      36 calls)

     Parallel routines

     PWSCF        :   7m22.96s CPU   7m38.21s WALL


   This run was terminated on:   7:35:43  20Aug2026            

=------------------------------------------------------------------------------=
   JOB DONE.
=------------------------------------------------------------------------------=
