
     Program PWSCF v.7.5 starts on 20Aug2026 at  7:56:33 

     This program is part of the open-source Quantum ESPRESSO suite
     for quantum simulation of materials; please cite
         "P. Giannozzi et al., J. Phys.:Condens. Matter 21 395502 (2009);
         "P. Giannozzi et al., J. Phys.:Condens. Matter 29 465901 (2017);
         "P. Giannozzi et al., J. Chem. Phys. 152 154105 (2020);
          URL http://www.quantum-espresso.org", 
     in publications or presentations arising from this work. More details at
     http://www.quantum-espresso.org/quote

     Parallel version (MPI & OpenMP), running on       2 processor cores
     Number of MPI processes:                 2
     Threads/MPI process:                     1

     MPI processes distributed on     1 nodes
     1737 MiB available memory on the printing compute node when the environment starts

     Reading input from strain_trans_m0025/bands.in

     Current dimensions of program PWSCF are:
     Max number of different atomic species (ntypx) = 10
     Max number of k-points (npk) =  40000
     Max angular momentum in pseudopotentials (lmaxx) =  4
     file Te.rel-pbe-n-rrkjus_psl.1.0.0.UPF: wavefunction(s)  5S renormalized

     Atomic positions and unit cell read from directory:
     /home/user/workspace/qe_runs/strain_trans_m0025/out/tetrans_m0025.save/


     R & G space division:  proc/nbgrp/npool/nimage =       2
     Subspace diagonalization in iterative solution of the eigenvalue problem:
     a serial algorithm will be used


     Parallelization info
     --------------------
     sticks:   dense  smooth     PW     G-vecs:    dense   smooth      PW
     Min         729     481    147                30025    16354    2698
     Max         730     486    148                30030    16355    2699
     Sum        1459     967    295                60055    32709    5397

     Using Slab Decomposition



     bravais-lattice index     =            0
     lattice parameter (alat)  =       8.4019  a.u.
     unit-cell volume          =     684.9564 (a.u.)^3
     number of atoms/cell      =            3
     number of atomic types    =            1
     number of electrons       =        18.00
     number of Kohn-Sham states=           28
     kinetic-energy cutoff     =      50.0000  Ry
     charge density cutoff     =     300.0000  Ry
     Exchange-correlation= PBE
                           (   1   4   3   4   0   0   0)
     Non magnetic calculation with spin-orbit


     celldm(1)=   8.401911  celldm(2)=   0.000000  celldm(3)=   0.000000
     celldm(4)=   0.000000  celldm(5)=   0.000000  celldm(6)=   0.000000

     crystal axes: (cart. coord. in units of alat)
               a(1) = (   1.000000   0.000000   0.000000 )  
               a(2) = (  -0.499989   0.866017   0.000000 )  
               a(3) = (   0.000000   0.000000   1.333528 )  

     reciprocal axes: (cart. coord. in units 2 pi/alat)
               b(1) = (  1.000000  0.577343 -0.000000 )  
               b(2) = (  0.000000  1.154712  0.000000 )  
               b(3) = (  0.000000 -0.000000  0.749890 )  


     PseudoPot. # 1 for Te read from file:
     /home/user/workspace/qe_runs/pseudo/Te.rel-pbe-n-rrkjus_psl.1.0.0.UPF
     MD5 check sum: 7fd30b6833abd190471e4dcc2367351b
     Pseudo is Ultrasoft + core correction, Zval =  6.0
     Generated using &quot;atomic&quot; code by A. Dal Corso  v.6.3
     Using radial grid of 1245 points, 10 beta functions with: 
                l(1) =   0
                l(2) =   0
                l(3) =   1
                l(4) =   1
                l(5) =   1
                l(6) =   1
                l(7) =   2
                l(8) =   2
                l(9) =   2
               l(10) =   2
     Q(r) pseudized with 0 coefficients 


     atomic species   valence    mass     pseudopotential
     Te                6.00   127.60000     Te( 1.00)

     No symmetry found


                                    s                        frac. trans.

      isym =  1     identity                                     

 cryst.   s( 1) = (     1          0          0      )
                  (     0          1          0      )
                  (     0          0          1      )

 cart.    s( 1) = (  1.0000000  0.0000000  0.0000000 )
                  (  0.0000000  1.0000000  0.0000000 )
                  (  0.0000000  0.0000000  1.0000000 )


   Cartesian axes

     site n.     atom                  positions (alat units)
         1        Te     tau(   1) = (   0.2636000   0.0000000   0.4445094  )
         2        Te     tau(   2) = (  -0.1317970   0.2282821   0.8890189  )
         3        Te     tau(   3) = (  -0.1318030  -0.2282821   0.0000000  )

   Crystallographic axes

     site n.     atom                  positions (cryst. coord.)
         1        Te     tau(   1) = (  0.2636000  0.0000000  0.3333333  )
         2        Te     tau(   2) = (  0.0000000  0.2636000  0.6666667  )
         3        Te     tau(   3) = ( -0.2636000 -0.2636000  0.0000000  )

     number of k points=     7  Gaussian smearing, width (Ry)=  0.0100
                       cart. coord. in units 2pi/alat
        k(    1) = (   0.3333333   0.5773515   0.0000000), wk =   0.1428571
        k(    2) = (   0.3333333   0.5773515   0.1499781), wk =   0.1428571
        k(    3) = (   0.3333333   0.5773515   0.2999561), wk =   0.1428571
        k(    4) = (   0.3333333   0.5773515   0.3749452), wk =   0.1428571
        k(    5) = (   0.3333333   0.5773515   0.4499342), wk =   0.1428571
        k(    6) = (   0.3333333   0.5773515   0.5999123), wk =   0.1428571
        k(    7) = (   0.0000000   0.0000000   0.3749452), wk =   0.1428571

                       cryst. coord.
        k(    1) = (   0.3333333   0.3333333   0.0000000), wk =   0.1428571
        k(    2) = (   0.3333333   0.3333333   0.2000000), wk =   0.1428571
        k(    3) = (   0.3333333   0.3333333   0.4000000), wk =   0.1428571
        k(    4) = (   0.3333333   0.3333333   0.5000000), wk =   0.1428571
        k(    5) = (   0.3333333   0.3333333   0.6000000), wk =   0.1428571
        k(    6) = (   0.3333333   0.3333333   0.8000000), wk =   0.1428571
        k(    7) = (   0.0000000   0.0000000   0.5000000), wk =   0.1428571

     Dense  grid:    60055 G-vectors     FFT dimensions: (  48,  48,  64)

     Smooth grid:    32709 G-vectors     FFT dimensions: (  40,  40,  54)

     Dynamical RAM for                 wfc:       1.75 MB

     Dynamical RAM for     wfc (w. buffer):       1.75 MB

     Dynamical RAM for           str. fact:       0.46 MB

     Dynamical RAM for           local pot:       0.00 MB

     Dynamical RAM for          nlocal pot:       3.18 MB

     Dynamical RAM for                qrad:       3.64 MB

     Dynamical RAM for          rho,v,vnew:      12.25 MB

     Dynamical RAM for           G-vectors:       1.84 MB

     Dynamical RAM for          h,s,v(r/c):       0.14 MB

     Dynamical RAM for          <psi|beta>:       0.09 MB

     Dynamical RAM for                 psi:       3.49 MB

     Dynamical RAM for                hpsi:       3.49 MB

     Dynamical RAM for                spsi:       3.49 MB

     Dynamical RAM for      wfcinit/wfcrot:       2.64 MB

     Dynamical RAM for           addusdens:     280.89 MB

     Estimated static dynamical RAM per process >      28.54 MB

     Estimated max dynamical RAM per process >     309.43 MB

     Estimated total dynamical RAM >     618.85 MB

     The potential is recalculated from file :
     /home/user/workspace/qe_runs/strain_trans_m0025/out/tetrans_m0025.save/charge-density

     Starting wfcs are   24 randomized atomic wfcs +    4 random wfcs

     Band Structure Calculation
     Davidson diagonalization with overlap

     Computing kpt #:     1  of     7
     total cpu time spent up to now is        2.0 secs

     Computing kpt #:     2  of     7
     total cpu time spent up to now is        2.8 secs

     Computing kpt #:     3  of     7
     total cpu time spent up to now is        3.5 secs

     Computing kpt #:     4  of     7
     total cpu time spent up to now is        4.8 secs

     Computing kpt #:     5  of     7
     total cpu time spent up to now is        5.5 secs

     Computing kpt #:     6  of     7
     total cpu time spent up to now is        6.3 secs

     Computing kpt #:     7  of     7
     total cpu time spent up to now is        7.2 secs

     ethr =  1.00E-06,  avg # of iterations = 36.9

     total cpu time spent up to now is        7.2 secs

     End of band structure calculation

          k = 0.3333 0.5774 0.0000 (  4092 PWs)   bands (ev):

    -6.4536  -6.4536  -4.6095  -4.6063  -4.6063  -4.5946   1.2702   1.4568
     1.4568   1.4730   2.8051   2.8051   2.9003   3.1065   3.1065   3.1308
     3.4861   3.4861   8.8176   8.8585   9.0256   9.0256   9.2770   9.2770
    10.9318  10.9318  11.9379  11.9379

          k = 0.3333 0.5774 0.1500 (  4110 PWs)   bands (ev):

    -6.3488  -6.3433  -5.0862  -5.0810  -4.2186  -4.2080   0.9044   0.9332
     1.2711   1.4180   2.0049   2.1196   3.0544   3.2342   4.1186   4.1818
     4.5077   4.7149   8.0894   8.2353   8.6666   8.7260   8.7343   8.8013
    11.2151  11.2669  11.6922  11.7300

          k = 0.3333 0.5774 0.3000 (  4065 PWs)   bands (ev):

    -6.0457  -6.0360  -5.5967  -5.5865  -3.9785  -3.9725   0.8078   0.8092
     0.8705   0.9097   1.2061   1.3125   4.4146   4.5183   5.4178   5.6278
     5.6834   6.0399   6.6534   6.7489   7.5957   7.7615   7.8537   7.8951
    11.8587  11.8792  12.0634  12.1091

          k = 0.3333 0.5774 0.3749 (  4080 PWs)   bands (ev):

    -5.8347  -5.8347  -5.8278  -5.8205  -3.9425  -3.9425   0.7728   0.7728
     0.9233   0.9768   1.0503   1.0503   4.8770   4.8770   5.8632   5.8632
     6.1136   6.2182   6.2182   6.2555   7.3776   7.4461   7.6064   7.6064
    11.9618  11.9618  12.6063  12.6124

          k = 0.3333 0.5774 0.4499 (  4065 PWs)   bands (ev):

    -6.0457  -6.0360  -5.5967  -5.5865  -3.9785  -3.9725   0.8078   0.8092
     0.8705   0.9097   1.2061   1.3125   4.4146   4.5183   5.4178   5.6278
     5.6834   6.0399   6.6534   6.7489   7.5958   7.7615   7.8537   7.8951
    11.8588  11.8792  12.0634  12.1091

          k = 0.3333 0.5774 0.5999 (  4110 PWs)   bands (ev):

    -6.3488  -6.3433  -5.0862  -5.0810  -4.2186  -4.2080   0.9044   0.9332
     1.2711   1.4180   2.0049   2.1196   3.0544   3.2342   4.1186   4.1818
     4.5077   4.7149   8.0894   8.2353   8.6666   8.7260   8.7343   8.8013
    11.2151  11.2669  11.6922  11.7300

          k = 0.0000 0.0000 0.3749 (  4118 PWs)   bands (ev):

    -6.7360  -6.7360  -6.7330  -6.7330  -2.0992  -2.0992   1.8573   1.8573
     3.2223   3.2223   3.5125   3.5125   4.6026   4.6026   4.8437   4.8437
     5.1267   5.1267   6.5109   6.5109   6.6236   6.6236   6.8460   6.8460
    10.0586  10.0586  11.3668  11.3669

     Writing all to output data dir /home/user/workspace/qe_runs/strain_trans_m0025/out/tetrans_m0025.save/ :
     XML data file, pseudopotentials, collected wavefunctions

     init_run     :      0.85s CPU      0.97s WALL (       1 calls)
     electrons    :      5.92s CPU      6.08s WALL (       1 calls)

     Called by init_run:
     wfcinit      :      0.00s CPU      0.00s WALL (       1 calls)
     wfcinit:atom :      0.00s CPU      0.00s WALL (       7 calls)
     wfcinit:wfcr :      0.26s CPU      0.28s WALL (       7 calls)
     potinit      :      0.16s CPU      0.17s WALL (       1 calls)
     hinit0       :      0.43s CPU      0.44s WALL (       1 calls)

     Called by electrons:
     c_bands      :      5.92s CPU      6.08s WALL (       1 calls)
     v_of_rho     :      0.01s CPU      0.03s WALL (       1 calls)
     v_h          :      0.00s CPU      0.00s WALL (       1 calls)
     v_xc         :      0.01s CPU      0.03s WALL (       1 calls)
     newd         :      0.25s CPU      0.34s WALL (       1 calls)

     Called by c_bands:
     init_us_2    :      0.00s CPU      0.01s WALL (       7 calls)
     cegterg      :      5.48s CPU      5.60s WALL (      17 calls)

     Called by sum_band:

     Called by *egterg:
     cdiaghg      :      0.23s CPU      0.23s WALL (     265 calls)
     cegterg:over :      0.30s CPU      0.30s WALL (     258 calls)
     cegterg:upda :      0.19s CPU      0.19s WALL (     258 calls)
     cegterg:last :      0.36s CPU      0.37s WALL (     104 calls)
     h_psi        :      4.25s CPU      4.38s WALL (     282 calls)
     s_psi        :      0.25s CPU      0.25s WALL (     282 calls)
     g_psi        :      0.05s CPU      0.05s WALL (     258 calls)

     Called by h_psi:
     h_psi:calbec :      0.31s CPU      0.31s WALL (     282 calls)
     vloc_psi     :      3.67s CPU      3.79s WALL (     282 calls)
                                        0.00s GPU  (     282 calls)
     add_vuspsi   :      0.25s CPU      0.25s WALL (     282 calls)

     General routines
     calbec       :      0.31s CPU      0.31s WALL (     282 calls)
     fft          :      0.18s CPU      0.18s WALL (      19 calls)
     ffts         :      0.14s CPU      0.14s WALL (       4 calls)
     fftw         :      3.25s CPU      3.35s WALL (   12680 calls)
     interpolate  :      0.14s CPU      0.14s WALL (       4 calls)
     davcio       :      0.01s CPU      0.01s WALL (      14 calls)

     Parallel routines

     PWSCF        :      6.96s CPU      7.69s WALL


   This run was terminated on:   7:56:41  20Aug2026            

=------------------------------------------------------------------------------=
   JOB DONE.
=------------------------------------------------------------------------------=
