
     Program PWSCF v.7.5 starts on 20Aug2026 at  7:53:13 

     This program is part of the open-source Quantum ESPRESSO suite
     for quantum simulation of materials; please cite
         "P. Giannozzi et al., J. Phys.:Condens. Matter 21 395502 (2009);
         "P. Giannozzi et al., J. Phys.:Condens. Matter 29 465901 (2017);
         "P. Giannozzi et al., J. Chem. Phys. 152 154105 (2020);
          URL http://www.quantum-espresso.org", 
     in publications or presentations arising from this work. More details at
     http://www.quantum-espresso.org/quote

     Parallel version (MPI & OpenMP), running on       2 processor cores
     Number of MPI processes:                 2
     Threads/MPI process:                     1

     MPI processes distributed on     1 nodes
     2149 MiB available memory on the printing compute node when the environment starts

     Reading input from strain_trans_m0050/bands.in

     Current dimensions of program PWSCF are:
     Max number of different atomic species (ntypx) = 10
     Max number of k-points (npk) =  40000
     Max angular momentum in pseudopotentials (lmaxx) =  4
     file Te.rel-pbe-n-rrkjus_psl.1.0.0.UPF: wavefunction(s)  5S renormalized

     Atomic positions and unit cell read from directory:
     /home/user/workspace/qe_runs/strain_trans_m0050/out/tetrans_m0050.save/


     R & G space division:  proc/nbgrp/npool/nimage =       2
     Subspace diagonalization in iterative solution of the eigenvalue problem:
     a serial algorithm will be used


     Parallelization info
     --------------------
     sticks:   dense  smooth     PW     G-vecs:    dense   smooth      PW
     Min         729     477    147                29895    16243    2698
     Max         730     478    148                29896    16250    2699
     Sum        1459     955    295                59791    32493    5397

     Using Slab Decomposition



     bravais-lattice index     =            0
     lattice parameter (alat)  =       8.3807  a.u.
     unit-cell volume          =     681.5186 (a.u.)^3
     number of atoms/cell      =            3
     number of atomic types    =            1
     number of electrons       =        18.00
     number of Kohn-Sham states=           28
     kinetic-energy cutoff     =      50.0000  Ry
     charge density cutoff     =     300.0000  Ry
     Exchange-correlation= PBE
                           (   1   4   3   4   0   0   0)
     Non magnetic calculation with spin-orbit


     celldm(1)=   8.380746  celldm(2)=   0.000000  celldm(3)=   0.000000
     celldm(4)=   0.000000  celldm(5)=   0.000000  celldm(6)=   0.000000

     crystal axes: (cart. coord. in units of alat)
               a(1) = (   1.000000   0.000000   0.000000 )  
               a(2) = (  -0.500011   0.866028   0.000000 )  
               a(3) = (   0.000000   0.000000   1.336896 )  

     reciprocal axes: (cart. coord. in units 2 pi/alat)
               b(1) = (  1.000000  0.577361 -0.000000 )  
               b(2) = (  0.000000  1.154697  0.000000 )  
               b(3) = (  0.000000 -0.000000  0.748001 )  


     PseudoPot. # 1 for Te read from file:
     /home/user/workspace/qe_runs/pseudo/Te.rel-pbe-n-rrkjus_psl.1.0.0.UPF
     MD5 check sum: 7fd30b6833abd190471e4dcc2367351b
     Pseudo is Ultrasoft + core correction, Zval =  6.0
     Generated using &quot;atomic&quot; code by A. Dal Corso  v.6.3
     Using radial grid of 1245 points, 10 beta functions with: 
                l(1) =   0
                l(2) =   0
                l(3) =   1
                l(4) =   1
                l(5) =   1
                l(6) =   1
                l(7) =   2
                l(8) =   2
                l(9) =   2
               l(10) =   2
     Q(r) pseudized with 0 coefficients 


     atomic species   valence    mass     pseudopotential
     Te                6.00   127.60000     Te( 1.00)

     No symmetry found


                                    s                        frac. trans.

      isym =  1     identity                                     

 cryst.   s( 1) = (     1          0          0      )
                  (     0          1          0      )
                  (     0          0          1      )

 cart.    s( 1) = (  1.0000000 -0.0000000  0.0000000 )
                  (  0.0000000  1.0000000  0.0000000 )
                  (  0.0000000  0.0000000  1.0000000 )


   Cartesian axes

     site n.     atom                  positions (alat units)
         1        Te     tau(   1) = (   0.2636000   0.0000000   0.4456320  )
         2        Te     tau(   2) = (  -0.1318030   0.2282850   0.8912640  )
         3        Te     tau(   3) = (  -0.1317970  -0.2282850   0.0000000  )

   Crystallographic axes

     site n.     atom                  positions (cryst. coord.)
         1        Te     tau(   1) = (  0.2636000  0.0000000  0.3333333  )
         2        Te     tau(   2) = ( -0.0000000  0.2636000  0.6666667  )
         3        Te     tau(   3) = ( -0.2636000 -0.2636000  0.0000000  )

     number of k points=     7  Gaussian smearing, width (Ry)=  0.0100
                       cart. coord. in units 2pi/alat
        k(    1) = (   0.3333333   0.5773528   0.0000000), wk =   0.1428571
        k(    2) = (   0.3333333   0.5773528   0.1496003), wk =   0.1428571
        k(    3) = (   0.3333333   0.5773528   0.2992005), wk =   0.1428571
        k(    4) = (   0.3333333   0.5773528   0.3740007), wk =   0.1428571
        k(    5) = (   0.3333333   0.5773528   0.4488008), wk =   0.1428571
        k(    6) = (   0.3333333   0.5773528   0.5984011), wk =   0.1428571
        k(    7) = (   0.0000000   0.0000000   0.3740007), wk =   0.1428571

                       cryst. coord.
        k(    1) = (   0.3333333   0.3333333   0.0000000), wk =   0.1428571
        k(    2) = (   0.3333333   0.3333333   0.2000000), wk =   0.1428571
        k(    3) = (   0.3333333   0.3333333   0.4000000), wk =   0.1428571
        k(    4) = (   0.3333333   0.3333333   0.5000000), wk =   0.1428571
        k(    5) = (   0.3333333   0.3333333   0.6000000), wk =   0.1428571
        k(    6) = (   0.3333333   0.3333333   0.8000000), wk =   0.1428571
        k(    7) = (   0.0000000   0.0000000   0.5000000), wk =   0.1428571

     Dense  grid:    59791 G-vectors     FFT dimensions: (  48,  48,  64)

     Smooth grid:    32493 G-vectors     FFT dimensions: (  40,  40,  54)

     Dynamical RAM for                 wfc:       1.74 MB

     Dynamical RAM for     wfc (w. buffer):       1.74 MB

     Dynamical RAM for           str. fact:       0.46 MB

     Dynamical RAM for           local pot:       0.00 MB

     Dynamical RAM for          nlocal pot:       3.17 MB

     Dynamical RAM for                qrad:       3.64 MB

     Dynamical RAM for          rho,v,vnew:      12.22 MB

     Dynamical RAM for           G-vectors:       1.83 MB

     Dynamical RAM for          h,s,v(r/c):       0.14 MB

     Dynamical RAM for          <psi|beta>:       0.09 MB

     Dynamical RAM for                 psi:       3.48 MB

     Dynamical RAM for                hpsi:       3.48 MB

     Dynamical RAM for                spsi:       3.48 MB

     Dynamical RAM for      wfcinit/wfcrot:       2.63 MB

     Dynamical RAM for           addusdens:     279.64 MB

     Estimated static dynamical RAM per process >      28.47 MB

     Estimated max dynamical RAM per process >     308.11 MB

     Estimated total dynamical RAM >     616.22 MB

     The potential is recalculated from file :
     /home/user/workspace/qe_runs/strain_trans_m0050/out/tetrans_m0050.save/charge-density

     Starting wfcs are   24 randomized atomic wfcs +    4 random wfcs

     Band Structure Calculation
     Davidson diagonalization with overlap

     Computing kpt #:     1  of     7
     total cpu time spent up to now is        2.0 secs

     Computing kpt #:     2  of     7
     total cpu time spent up to now is        2.7 secs

     Computing kpt #:     3  of     7
     total cpu time spent up to now is        3.5 secs

     Computing kpt #:     4  of     7
     total cpu time spent up to now is        4.5 secs

     Computing kpt #:     5  of     7
     total cpu time spent up to now is        5.3 secs

     Computing kpt #:     6  of     7
     total cpu time spent up to now is        6.0 secs

     Computing kpt #:     7  of     7
     total cpu time spent up to now is        6.8 secs

     ethr =  1.00E-06,  avg # of iterations = 32.6

     total cpu time spent up to now is        6.8 secs

     End of band structure calculation

          k = 0.3333 0.5774 0.0000 (  4032 PWs)   bands (ev):

    -6.4116  -6.4116  -4.5608  -4.5575  -4.5575  -4.5456   1.3051   1.4911
     1.4911   1.5087   2.8465   2.8465   2.9402   3.1515   3.1515   3.1708
     3.5248   3.5248   8.8960   8.9366   9.1048   9.1048   9.3602   9.3602
    10.9973  10.9973  12.0076  12.0076

          k = 0.3333 0.5774 0.1496 (  4086 PWs)   bands (ev):

    -6.3065  -6.3009  -5.0392  -5.0339  -4.1683  -4.1575   0.9367   0.9661
     1.3071   1.4539   2.0428   2.1576   3.0926   3.2722   4.1668   4.2302
     4.5567   4.7633   8.1580   8.3037   8.7422   8.8038   8.8102   8.8788
    11.2793  11.3318  11.7609  11.7978

          k = 0.3333 0.5774 0.2992 (  4056 PWs)   bands (ev):

    -6.0023  -5.9925  -5.5517  -5.5413  -3.9268  -3.9207   0.8404   0.8423
     0.9037   0.9427   1.2406   1.3473   4.4592   4.5629   5.4759   5.6860
     5.7436   6.0997   6.7083   6.8036   7.6608   7.8240   7.9208   7.9596
    11.9261  11.9470  12.1236  12.1698

          k = 0.3333 0.5774 0.3740 (  4056 PWs)   bands (ev):

    -5.7905  -5.7905  -5.7836  -5.7761  -3.8905  -3.8905   0.8055   0.8055
     0.9566   1.0102   1.0840   1.0840   4.9251   4.9251   5.9250   5.9250
     6.1767   6.2699   6.2699   6.3195   7.4383   7.5080   7.6658   7.6658
    12.0285  12.0285  12.6649  12.6716

          k = 0.3333 0.5774 0.4488 (  4056 PWs)   bands (ev):

    -6.0023  -5.9925  -5.5517  -5.5413  -3.9268  -3.9207   0.8404   0.8423
     0.9037   0.9427   1.2406   1.3473   4.4592   4.5629   5.4759   5.6860
     5.7436   6.0997   6.7083   6.8036   7.6608   7.8240   7.9208   7.9596
    11.9262  11.9470  12.1237  12.1700

          k = 0.3333 0.5774 0.5984 (  4086 PWs)   bands (ev):

    -6.3065  -6.3009  -5.0392  -5.0339  -4.1683  -4.1575   0.9367   0.9661
     1.3071   1.4539   2.0428   2.1576   3.0926   3.2722   4.1668   4.2302
     4.5567   4.7633   8.1580   8.3037   8.7422   8.8038   8.8102   8.8788
    11.2793  11.3318  11.7609  11.7978

          k = 0.0000 0.0000 0.3740 (  4082 PWs)   bands (ev):

    -6.7048  -6.7048  -6.7018  -6.7018  -2.0264  -2.0264   1.8915   1.8915
     3.2797   3.2797   3.5723   3.5723   4.6584   4.6584   4.9074   4.9074
     5.1928   5.1928   6.5744   6.5744   6.6966   6.6966   6.9146   6.9146
    10.0978  10.0978  11.4274  11.4277

     Writing all to output data dir /home/user/workspace/qe_runs/strain_trans_m0050/out/tetrans_m0050.save/ :
     XML data file, pseudopotentials, collected wavefunctions

     init_run     :      0.93s CPU      1.03s WALL (       1 calls)
     electrons    :      5.46s CPU      5.58s WALL (       1 calls)

     Called by init_run:
     wfcinit      :      0.00s CPU      0.00s WALL (       1 calls)
     wfcinit:atom :      0.00s CPU      0.00s WALL (       7 calls)
     wfcinit:wfcr :      0.27s CPU      0.27s WALL (       7 calls)
     potinit      :      0.17s CPU      0.18s WALL (       1 calls)
     hinit0       :      0.50s CPU      0.50s WALL (       1 calls)

     Called by electrons:
     c_bands      :      5.46s CPU      5.57s WALL (       1 calls)
     v_of_rho     :      0.03s CPU      0.03s WALL (       1 calls)
     v_h          :      0.00s CPU      0.00s WALL (       1 calls)
     v_xc         :      0.02s CPU      0.03s WALL (       1 calls)
     newd         :      0.25s CPU      0.34s WALL (       1 calls)

     Called by c_bands:
     init_us_2    :      0.01s CPU      0.01s WALL (       7 calls)
     cegterg      :      5.02s CPU      5.11s WALL (      15 calls)

     Called by sum_band:

     Called by *egterg:
     cdiaghg      :      0.20s CPU      0.21s WALL (     235 calls)
     cegterg:over :      0.28s CPU      0.28s WALL (     228 calls)
     cegterg:upda :      0.17s CPU      0.17s WALL (     228 calls)
     cegterg:last :      0.34s CPU      0.34s WALL (     101 calls)
     h_psi        :      3.90s CPU      3.99s WALL (     250 calls)
     s_psi        :      0.23s CPU      0.24s WALL (     250 calls)
     g_psi        :      0.05s CPU      0.05s WALL (     228 calls)

     Called by h_psi:
     h_psi:calbec :      0.28s CPU      0.29s WALL (     250 calls)
     vloc_psi     :      3.37s CPU      3.45s WALL (     250 calls)
                                        0.00s GPU  (     250 calls)
     add_vuspsi   :      0.23s CPU      0.24s WALL (     250 calls)

     General routines
     calbec       :      0.28s CPU      0.29s WALL (     250 calls)
     fft          :      0.18s CPU      0.18s WALL (      19 calls)
     ffts         :      0.14s CPU      0.14s WALL (       4 calls)
     fftw         :      2.97s CPU      3.04s WALL (   12168 calls)
     interpolate  :      0.14s CPU      0.14s WALL (       4 calls)
     davcio       :      0.01s CPU      0.01s WALL (      14 calls)

     Parallel routines

     PWSCF        :      6.55s CPU      6.82s WALL


   This run was terminated on:   7:53:20  20Aug2026            

=------------------------------------------------------------------------------=
   JOB DONE.
=------------------------------------------------------------------------------=
