
     Program PWSCF v.7.5 starts on 20Aug2026 at  7:49:59 

     This program is part of the open-source Quantum ESPRESSO suite
     for quantum simulation of materials; please cite
         "P. Giannozzi et al., J. Phys.:Condens. Matter 21 395502 (2009);
         "P. Giannozzi et al., J. Phys.:Condens. Matter 29 465901 (2017);
         "P. Giannozzi et al., J. Chem. Phys. 152 154105 (2020);
          URL http://www.quantum-espresso.org", 
     in publications or presentations arising from this work. More details at
     http://www.quantum-espresso.org/quote

     Parallel version (MPI & OpenMP), running on       2 processor cores
     Number of MPI processes:                 2
     Threads/MPI process:                     1

     MPI processes distributed on     1 nodes
     2531 MiB available memory on the printing compute node when the environment starts

     Reading input from strain_trans_m0050/scf.in

     Current dimensions of program PWSCF are:
     Max number of different atomic species (ntypx) = 10
     Max number of k-points (npk) =  40000
     Max angular momentum in pseudopotentials (lmaxx) =  4
     file Te.rel-pbe-n-rrkjus_psl.1.0.0.UPF: wavefunction(s)  5S renormalized

     R & G space division:  proc/nbgrp/npool/nimage =       2
     Subspace diagonalization in iterative solution of the eigenvalue problem:
     a serial algorithm will be used


     Parallelization info
     --------------------
     sticks:   dense  smooth     PW     G-vecs:    dense   smooth      PW
     Min         729     477    150                29895    16243    2792
     Max         730     478    151                29896    16250    2793
     Sum        1459     955    301                59791    32493    5585

     Using Slab Decomposition



     bravais-lattice index     =            0
     lattice parameter (alat)  =       8.3807  a.u.
     unit-cell volume          =     681.5186 (a.u.)^3
     number of atoms/cell      =            3
     number of atomic types    =            1
     number of electrons       =        18.00
     number of Kohn-Sham states=           26
     kinetic-energy cutoff     =      50.0000  Ry
     charge density cutoff     =     300.0000  Ry
     scf convergence threshold =      1.0E-08
     mixing beta               =       0.4000
     number of iterations used =            8  plain     mixing
     Exchange-correlation= PBE
                           (   1   4   3   4   0   0   0)
     Non magnetic calculation with spin-orbit


     celldm(1)=   8.380746  celldm(2)=   0.000000  celldm(3)=   0.000000
     celldm(4)=   0.000000  celldm(5)=   0.000000  celldm(6)=   0.000000

     crystal axes: (cart. coord. in units of alat)
               a(1) = (   1.000000   0.000000   0.000000 )  
               a(2) = (  -0.500011   0.866028   0.000000 )  
               a(3) = (   0.000000   0.000000   1.336896 )  

     reciprocal axes: (cart. coord. in units 2 pi/alat)
               b(1) = (  1.000000  0.577361 -0.000000 )  
               b(2) = (  0.000000  1.154697  0.000000 )  
               b(3) = (  0.000000 -0.000000  0.748001 )  


     PseudoPot. # 1 for Te read from file:
     /home/user/workspace/qe_runs/pseudo/Te.rel-pbe-n-rrkjus_psl.1.0.0.UPF
     MD5 check sum: 7fd30b6833abd190471e4dcc2367351b
     Pseudo is Ultrasoft + core correction, Zval =  6.0
     Generated using &quot;atomic&quot; code by A. Dal Corso  v.6.3
     Using radial grid of 1245 points, 10 beta functions with: 
                l(1) =   0
                l(2) =   0
                l(3) =   1
                l(4) =   1
                l(5) =   1
                l(6) =   1
                l(7) =   2
                l(8) =   2
                l(9) =   2
               l(10) =   2
     Q(r) pseudized with 0 coefficients 


     atomic species   valence    mass     pseudopotential
     Te                6.00   127.60000     Te( 1.00)

     No symmetry found


                                    s                        frac. trans.

      isym =  1     identity                                     

 cryst.   s( 1) = (     1          0          0      )
                  (     0          1          0      )
                  (     0          0          1      )

 cart.    s( 1) = (  1.0000000 -0.0000000  0.0000000 )
                  (  0.0000000  1.0000000  0.0000000 )
                  (  0.0000000  0.0000000  1.0000000 )


   Cartesian axes

     site n.     atom                  positions (alat units)
         1        Te     tau(   1) = (   0.2636000   0.0000000   0.4456320  )
         2        Te     tau(   2) = (  -0.1318030   0.2282850   0.8912640  )
         3        Te     tau(   3) = (  -0.1317970  -0.2282850   0.0000000  )

   Crystallographic axes

     site n.     atom                  positions (cryst. coord.)
         1        Te     tau(   1) = (  0.2636000  0.0000000  0.3333333  )
         2        Te     tau(   2) = ( -0.0000000  0.2636000  0.6666667  )
         3        Te     tau(   3) = ( -0.2636000 -0.2636000  0.0000000  )

     number of k points=   112  Gaussian smearing, width (Ry)=  0.0100
                       cart. coord. in units 2pi/alat
        k(    1) = (   0.0000000   0.0000000   0.0000000), wk =   0.0046296
        k(    2) = (   0.0000000   0.0000000   0.1246669), wk =   0.0092593
        k(    3) = (   0.0000000   0.0000000   0.2493338), wk =   0.0092593
        k(    4) = (   0.0000000   0.0000000  -0.3740007), wk =   0.0046296
        k(    5) = (   0.0000000   0.1924495   0.0000000), wk =   0.0092593
        k(    6) = (   0.0000000   0.1924495   0.1246669), wk =   0.0092593
        k(    7) = (   0.0000000   0.1924495   0.2493338), wk =   0.0092593
        k(    8) = (   0.0000000   0.1924495  -0.3740007), wk =   0.0092593
        k(    9) = (   0.0000000   0.3848990   0.0000000), wk =   0.0092593
        k(   10) = (   0.0000000   0.3848990   0.1246669), wk =   0.0092593
        k(   11) = (   0.0000000   0.3848990   0.2493338), wk =   0.0092593
        k(   12) = (   0.0000000   0.3848990  -0.3740007), wk =   0.0092593
        k(   13) = (   0.0000000  -0.5773485   0.0000000), wk =   0.0046296
        k(   14) = (   0.0000000  -0.5773485   0.1246669), wk =   0.0092593
        k(   15) = (   0.0000000  -0.5773485   0.2493338), wk =   0.0092593
        k(   16) = (   0.0000000  -0.5773485  -0.3740007), wk =   0.0046296
        k(   17) = (   0.1666667   0.0962269   0.0000000), wk =   0.0092593
        k(   18) = (   0.1666667   0.0962269   0.1246669), wk =   0.0092593
        k(   19) = (   0.1666667   0.0962269   0.2493338), wk =   0.0092593
        k(   20) = (   0.1666667   0.0962269  -0.3740007), wk =   0.0092593
        k(   21) = (   0.1666667   0.2886764   0.0000000), wk =   0.0092593
        k(   22) = (   0.1666667   0.2886764   0.1246669), wk =   0.0092593
        k(   23) = (   0.1666667   0.2886764   0.2493338), wk =   0.0092593
        k(   24) = (   0.1666667   0.2886764  -0.3740007), wk =   0.0092593
        k(   25) = (   0.1666667   0.4811259   0.0000000), wk =   0.0092593
        k(   26) = (   0.1666667   0.4811259   0.1246669), wk =   0.0092593
        k(   27) = (   0.1666667   0.4811259   0.2493338), wk =   0.0092593
        k(   28) = (   0.1666667   0.4811259  -0.3740007), wk =   0.0092593
        k(   29) = (   0.1666667  -0.4811216   0.0000000), wk =   0.0092593
        k(   30) = (   0.1666667  -0.4811216   0.1246669), wk =   0.0092593
        k(   31) = (   0.1666667  -0.4811216   0.2493338), wk =   0.0092593
        k(   32) = (   0.1666667  -0.4811216  -0.3740007), wk =   0.0092593
        k(   33) = (   0.1666667  -0.2886721   0.0000000), wk =   0.0092593
        k(   34) = (   0.1666667  -0.2886721   0.1246669), wk =   0.0092593
        k(   35) = (   0.1666667  -0.2886721   0.2493338), wk =   0.0092593
        k(   36) = (   0.1666667  -0.2886721  -0.3740007), wk =   0.0092593
        k(   37) = (   0.1666667  -0.0962226   0.0000000), wk =   0.0092593
        k(   38) = (   0.1666667  -0.0962226   0.1246669), wk =   0.0092593
        k(   39) = (   0.1666667  -0.0962226   0.2493338), wk =   0.0092593
        k(   40) = (   0.1666667  -0.0962226  -0.3740007), wk =   0.0092593
        k(   41) = (   0.3333333   0.1924538   0.0000000), wk =   0.0092593
        k(   42) = (   0.3333333   0.1924538   0.1246669), wk =   0.0092593
        k(   43) = (   0.3333333   0.1924538   0.2493338), wk =   0.0092593
        k(   44) = (   0.3333333   0.1924538  -0.3740007), wk =   0.0092593
        k(   45) = (   0.3333333   0.3849033   0.0000000), wk =   0.0092593
        k(   46) = (   0.3333333   0.3849033   0.1246669), wk =   0.0092593
        k(   47) = (   0.3333333   0.3849033   0.2493338), wk =   0.0092593
        k(   48) = (   0.3333333   0.3849033  -0.3740007), wk =   0.0092593
        k(   49) = (   0.3333333   0.5773528   0.0000000), wk =   0.0092593
        k(   50) = (   0.3333333   0.5773528   0.1246669), wk =   0.0092593
        k(   51) = (   0.3333333   0.5773528   0.2493338), wk =   0.0092593
        k(   52) = (   0.3333333   0.5773528  -0.3740007), wk =   0.0092593
        k(   53) = (   0.3333333  -0.3848946   0.0000000), wk =   0.0092593
        k(   54) = (   0.3333333  -0.3848946   0.1246669), wk =   0.0092593
        k(   55) = (   0.3333333  -0.3848946   0.2493338), wk =   0.0092593
        k(   56) = (   0.3333333  -0.3848946  -0.3740007), wk =   0.0092593
        k(   57) = (   0.3333333  -0.1924452   0.0000000), wk =   0.0092593
        k(   58) = (   0.3333333  -0.1924452   0.1246669), wk =   0.0092593
        k(   59) = (   0.3333333  -0.1924452   0.2493338), wk =   0.0092593
        k(   60) = (   0.3333333  -0.1924452  -0.3740007), wk =   0.0092593
        k(   61) = (   0.3333333   0.0000043   0.0000000), wk =   0.0092593
        k(   62) = (   0.3333333   0.0000043   0.1246669), wk =   0.0092593
        k(   63) = (   0.3333333   0.0000043   0.2493338), wk =   0.0092593
        k(   64) = (   0.3333333   0.0000043  -0.3740007), wk =   0.0092593
        k(   65) = (  -0.5000000  -0.2886807   0.0000000), wk =   0.0046296
        k(   66) = (  -0.5000000  -0.2886807   0.1246669), wk =   0.0092593
        k(   67) = (  -0.5000000  -0.2886807   0.2493338), wk =   0.0092593
        k(   68) = (  -0.5000000  -0.2886807  -0.3740007), wk =   0.0046296
        k(   69) = (  -0.5000000  -0.0962313   0.0000000), wk =   0.0092593
        k(   70) = (  -0.5000000  -0.0962313   0.1246669), wk =   0.0092593
        k(   71) = (  -0.5000000  -0.0962313   0.2493338), wk =   0.0092593
        k(   72) = (  -0.5000000  -0.0962313  -0.3740007), wk =   0.0092593
        k(   73) = (  -0.5000000   0.0962182   0.0000000), wk =   0.0092593
        k(   74) = (  -0.5000000   0.0962182   0.1246669), wk =   0.0092593
        k(   75) = (  -0.5000000   0.0962182   0.2493338), wk =   0.0092593
        k(   76) = (  -0.5000000   0.0962182  -0.3740007), wk =   0.0092593
        k(   77) = (  -0.5000000  -0.8660292   0.0000000), wk =   0.0046296
        k(   78) = (  -0.5000000  -0.8660292   0.1246669), wk =   0.0092593
        k(   79) = (  -0.5000000  -0.8660292   0.2493338), wk =   0.0092593
        k(   80) = (  -0.5000000  -0.8660292  -0.3740007), wk =   0.0046296
        k(   81) = (   0.0000000  -0.1924495   0.1246669), wk =   0.0092593
        k(   82) = (   0.0000000  -0.1924495   0.2493338), wk =   0.0092593
        k(   83) = (   0.0000000  -0.3848990   0.1246669), wk =   0.0092593
        k(   84) = (   0.0000000  -0.3848990   0.2493338), wk =   0.0092593
        k(   85) = (  -0.1666667  -0.0962269   0.1246669), wk =   0.0092593
        k(   86) = (  -0.1666667  -0.0962269   0.2493338), wk =   0.0092593
        k(   87) = (  -0.1666667  -0.2886764   0.1246669), wk =   0.0092593
        k(   88) = (  -0.1666667  -0.2886764   0.2493338), wk =   0.0092593
        k(   89) = (  -0.1666667  -0.4811259   0.1246669), wk =   0.0092593
        k(   90) = (  -0.1666667  -0.4811259   0.2493338), wk =   0.0092593
        k(   91) = (  -0.1666667   0.4811216   0.1246669), wk =   0.0092593
        k(   92) = (  -0.1666667   0.4811216   0.2493338), wk =   0.0092593
        k(   93) = (  -0.1666667   0.2886721   0.1246669), wk =   0.0092593
        k(   94) = (  -0.1666667   0.2886721   0.2493338), wk =   0.0092593
        k(   95) = (  -0.1666667   0.0962226   0.1246669), wk =   0.0092593
        k(   96) = (  -0.1666667   0.0962226   0.2493338), wk =   0.0092593
        k(   97) = (  -0.3333333  -0.1924538   0.1246669), wk =   0.0092593
        k(   98) = (  -0.3333333  -0.1924538   0.2493338), wk =   0.0092593
        k(   99) = (  -0.3333333  -0.3849033   0.1246669), wk =   0.0092593
        k(  100) = (  -0.3333333  -0.3849033   0.2493338), wk =   0.0092593
        k(  101) = (  -0.3333333  -0.5773528   0.1246669), wk =   0.0092593
        k(  102) = (  -0.3333333  -0.5773528   0.2493338), wk =   0.0092593
        k(  103) = (  -0.3333333   0.3848946   0.1246669), wk =   0.0092593
        k(  104) = (  -0.3333333   0.3848946   0.2493338), wk =   0.0092593
        k(  105) = (  -0.3333333   0.1924452   0.1246669), wk =   0.0092593
        k(  106) = (  -0.3333333   0.1924452   0.2493338), wk =   0.0092593
        k(  107) = (  -0.3333333  -0.0000043   0.1246669), wk =   0.0092593
        k(  108) = (  -0.3333333  -0.0000043   0.2493338), wk =   0.0092593
        k(  109) = (   0.5000000   0.0962313   0.1246669), wk =   0.0092593
        k(  110) = (   0.5000000   0.0962313   0.2493338), wk =   0.0092593
        k(  111) = (   0.5000000  -0.0962182   0.1246669), wk =   0.0092593
        k(  112) = (   0.5000000  -0.0962182   0.2493338), wk =   0.0092593

                       cryst. coord.
        k(    1) = (   0.0000000   0.0000000   0.0000000), wk =   0.0046296
        k(    2) = (   0.0000000   0.0000000   0.1666667), wk =   0.0092593
        k(    3) = (   0.0000000   0.0000000   0.3333333), wk =   0.0092593
        k(    4) = (   0.0000000   0.0000000  -0.5000000), wk =   0.0046296
        k(    5) = (   0.0000000   0.1666667   0.0000000), wk =   0.0092593
        k(    6) = (   0.0000000   0.1666667   0.1666667), wk =   0.0092593
        k(    7) = (   0.0000000   0.1666667   0.3333333), wk =   0.0092593
        k(    8) = (   0.0000000   0.1666667  -0.5000000), wk =   0.0092593
        k(    9) = (   0.0000000   0.3333333   0.0000000), wk =   0.0092593
        k(   10) = (   0.0000000   0.3333333   0.1666667), wk =   0.0092593
        k(   11) = (   0.0000000   0.3333333   0.3333333), wk =   0.0092593
        k(   12) = (   0.0000000   0.3333333  -0.5000000), wk =   0.0092593
        k(   13) = (   0.0000000  -0.5000000   0.0000000), wk =   0.0046296
        k(   14) = (   0.0000000  -0.5000000   0.1666667), wk =   0.0092593
        k(   15) = (   0.0000000  -0.5000000   0.3333333), wk =   0.0092593
        k(   16) = (   0.0000000  -0.5000000  -0.5000000), wk =   0.0046296
        k(   17) = (   0.1666667  -0.0000000   0.0000000), wk =   0.0092593
        k(   18) = (   0.1666667  -0.0000000   0.1666667), wk =   0.0092593
        k(   19) = (   0.1666667  -0.0000000   0.3333333), wk =   0.0092593
        k(   20) = (   0.1666667  -0.0000000  -0.5000000), wk =   0.0092593
        k(   21) = (   0.1666667   0.1666667   0.0000000), wk =   0.0092593
        k(   22) = (   0.1666667   0.1666667   0.1666667), wk =   0.0092593
        k(   23) = (   0.1666667   0.1666667   0.3333333), wk =   0.0092593
        k(   24) = (   0.1666667   0.1666667  -0.5000000), wk =   0.0092593
        k(   25) = (   0.1666667   0.3333333   0.0000000), wk =   0.0092593
        k(   26) = (   0.1666667   0.3333333   0.1666667), wk =   0.0092593
        k(   27) = (   0.1666667   0.3333333   0.3333333), wk =   0.0092593
        k(   28) = (   0.1666667   0.3333333  -0.5000000), wk =   0.0092593
        k(   29) = (   0.1666667  -0.5000000   0.0000000), wk =   0.0092593
        k(   30) = (   0.1666667  -0.5000000   0.1666667), wk =   0.0092593
        k(   31) = (   0.1666667  -0.5000000   0.3333333), wk =   0.0092593
        k(   32) = (   0.1666667  -0.5000000  -0.5000000), wk =   0.0092593
        k(   33) = (   0.1666667  -0.3333333   0.0000000), wk =   0.0092593
        k(   34) = (   0.1666667  -0.3333333   0.1666667), wk =   0.0092593
        k(   35) = (   0.1666667  -0.3333333   0.3333333), wk =   0.0092593
        k(   36) = (   0.1666667  -0.3333333  -0.5000000), wk =   0.0092593
        k(   37) = (   0.1666667  -0.1666667   0.0000000), wk =   0.0092593
        k(   38) = (   0.1666667  -0.1666667   0.1666667), wk =   0.0092593
        k(   39) = (   0.1666667  -0.1666667   0.3333333), wk =   0.0092593
        k(   40) = (   0.1666667  -0.1666667  -0.5000000), wk =   0.0092593
        k(   41) = (   0.3333333  -0.0000000   0.0000000), wk =   0.0092593
        k(   42) = (   0.3333333  -0.0000000   0.1666667), wk =   0.0092593
        k(   43) = (   0.3333333  -0.0000000   0.3333333), wk =   0.0092593
        k(   44) = (   0.3333333  -0.0000000  -0.5000000), wk =   0.0092593
        k(   45) = (   0.3333333   0.1666667   0.0000000), wk =   0.0092593
        k(   46) = (   0.3333333   0.1666667   0.1666667), wk =   0.0092593
        k(   47) = (   0.3333333   0.1666667   0.3333333), wk =   0.0092593
        k(   48) = (   0.3333333   0.1666667  -0.5000000), wk =   0.0092593
        k(   49) = (   0.3333333   0.3333333   0.0000000), wk =   0.0092593
        k(   50) = (   0.3333333   0.3333333   0.1666667), wk =   0.0092593
        k(   51) = (   0.3333333   0.3333333   0.3333333), wk =   0.0092593
        k(   52) = (   0.3333333   0.3333333  -0.5000000), wk =   0.0092593
        k(   53) = (   0.3333333  -0.5000000   0.0000000), wk =   0.0092593
        k(   54) = (   0.3333333  -0.5000000   0.1666667), wk =   0.0092593
        k(   55) = (   0.3333333  -0.5000000   0.3333333), wk =   0.0092593
        k(   56) = (   0.3333333  -0.5000000  -0.5000000), wk =   0.0092593
        k(   57) = (   0.3333333  -0.3333333   0.0000000), wk =   0.0092593
        k(   58) = (   0.3333333  -0.3333333   0.1666667), wk =   0.0092593
        k(   59) = (   0.3333333  -0.3333333   0.3333333), wk =   0.0092593
        k(   60) = (   0.3333333  -0.3333333  -0.5000000), wk =   0.0092593
        k(   61) = (   0.3333333  -0.1666667   0.0000000), wk =   0.0092593
        k(   62) = (   0.3333333  -0.1666667   0.1666667), wk =   0.0092593
        k(   63) = (   0.3333333  -0.1666667   0.3333333), wk =   0.0092593
        k(   64) = (   0.3333333  -0.1666667  -0.5000000), wk =   0.0092593
        k(   65) = (  -0.5000000   0.0000000   0.0000000), wk =   0.0046296
        k(   66) = (  -0.5000000   0.0000000   0.1666667), wk =   0.0092593
        k(   67) = (  -0.5000000   0.0000000   0.3333333), wk =   0.0092593
        k(   68) = (  -0.5000000   0.0000000  -0.5000000), wk =   0.0046296
        k(   69) = (  -0.5000000   0.1666667   0.0000000), wk =   0.0092593
        k(   70) = (  -0.5000000   0.1666667   0.1666667), wk =   0.0092593
        k(   71) = (  -0.5000000   0.1666667   0.3333333), wk =   0.0092593
        k(   72) = (  -0.5000000   0.1666667  -0.5000000), wk =   0.0092593
        k(   73) = (  -0.5000000   0.3333333   0.0000000), wk =   0.0092593
        k(   74) = (  -0.5000000   0.3333333   0.1666667), wk =   0.0092593
        k(   75) = (  -0.5000000   0.3333333   0.3333333), wk =   0.0092593
        k(   76) = (  -0.5000000   0.3333333  -0.5000000), wk =   0.0092593
        k(   77) = (  -0.5000000  -0.5000000   0.0000000), wk =   0.0046296
        k(   78) = (  -0.5000000  -0.5000000   0.1666667), wk =   0.0092593
        k(   79) = (  -0.5000000  -0.5000000   0.3333333), wk =   0.0092593
        k(   80) = (  -0.5000000  -0.5000000  -0.5000000), wk =   0.0046296
        k(   81) = (   0.0000000  -0.1666667   0.1666667), wk =   0.0092593
        k(   82) = (   0.0000000  -0.1666667   0.3333333), wk =   0.0092593
        k(   83) = (   0.0000000  -0.3333333   0.1666667), wk =   0.0092593
        k(   84) = (   0.0000000  -0.3333333   0.3333333), wk =   0.0092593
        k(   85) = (  -0.1666667   0.0000000   0.1666667), wk =   0.0092593
        k(   86) = (  -0.1666667   0.0000000   0.3333333), wk =   0.0092593
        k(   87) = (  -0.1666667  -0.1666667   0.1666667), wk =   0.0092593
        k(   88) = (  -0.1666667  -0.1666667   0.3333333), wk =   0.0092593
        k(   89) = (  -0.1666667  -0.3333333   0.1666667), wk =   0.0092593
        k(   90) = (  -0.1666667  -0.3333333   0.3333333), wk =   0.0092593
        k(   91) = (  -0.1666667   0.5000000   0.1666667), wk =   0.0092593
        k(   92) = (  -0.1666667   0.5000000   0.3333333), wk =   0.0092593
        k(   93) = (  -0.1666667   0.3333333   0.1666667), wk =   0.0092593
        k(   94) = (  -0.1666667   0.3333333   0.3333333), wk =   0.0092593
        k(   95) = (  -0.1666667   0.1666667   0.1666667), wk =   0.0092593
        k(   96) = (  -0.1666667   0.1666667   0.3333333), wk =   0.0092593
        k(   97) = (  -0.3333333   0.0000000   0.1666667), wk =   0.0092593
        k(   98) = (  -0.3333333   0.0000000   0.3333333), wk =   0.0092593
        k(   99) = (  -0.3333333  -0.1666667   0.1666667), wk =   0.0092593
        k(  100) = (  -0.3333333  -0.1666667   0.3333333), wk =   0.0092593
        k(  101) = (  -0.3333333  -0.3333333   0.1666667), wk =   0.0092593
        k(  102) = (  -0.3333333  -0.3333333   0.3333333), wk =   0.0092593
        k(  103) = (  -0.3333333   0.5000000   0.1666667), wk =   0.0092593
        k(  104) = (  -0.3333333   0.5000000   0.3333333), wk =   0.0092593
        k(  105) = (  -0.3333333   0.3333333   0.1666667), wk =   0.0092593
        k(  106) = (  -0.3333333   0.3333333   0.3333333), wk =   0.0092593
        k(  107) = (  -0.3333333   0.1666667   0.1666667), wk =   0.0092593
        k(  108) = (  -0.3333333   0.1666667   0.3333333), wk =   0.0092593
        k(  109) = (   0.5000000  -0.1666667   0.1666667), wk =   0.0092593
        k(  110) = (   0.5000000  -0.1666667   0.3333333), wk =   0.0092593
        k(  111) = (   0.5000000  -0.3333333   0.1666667), wk =   0.0092593
        k(  112) = (   0.5000000  -0.3333333   0.3333333), wk =   0.0092593

     Dense  grid:    59791 G-vectors     FFT dimensions: (  48,  48,  64)

     Smooth grid:    32493 G-vectors     FFT dimensions: (  40,  40,  54)

     Dynamical RAM for                 wfc:       1.61 MB

     Dynamical RAM for     wfc (w. buffer):     182.37 MB

     Dynamical RAM for           str. fact:       0.46 MB

     Dynamical RAM for           local pot:       0.00 MB

     Dynamical RAM for          nlocal pot:       3.17 MB

     Dynamical RAM for                qrad:       3.64 MB

     Dynamical RAM for          rho,v,vnew:      12.22 MB

     Dynamical RAM for               rhoin:       4.07 MB

     Dynamical RAM for            rho*nmix:      29.20 MB

     Dynamical RAM for           G-vectors:       1.83 MB

     Dynamical RAM for          h,s,v(r/c):       0.12 MB

     Dynamical RAM for          <psi|beta>:       0.08 MB

     Dynamical RAM for                 psi:       3.23 MB

     Dynamical RAM for                hpsi:       3.23 MB

     Dynamical RAM for                spsi:       3.23 MB

     Dynamical RAM for      wfcinit/wfcrot:       2.44 MB

     Dynamical RAM for           addusdens:     279.64 MB

     Dynamical RAM for         addusstress:     286.48 MB

     Estimated static dynamical RAM per process >     213.18 MB

     Estimated max dynamical RAM per process >     528.85 MB

     Estimated total dynamical RAM >       1.03 GB

     Initial potential from superposition of free atoms

     starting charge      17.9993, renormalised to      18.0000
     Starting wfcs are   24 randomized atomic wfcs +    2 random wfcs

     total cpu time spent up to now is        5.6 secs

     per-process dynamical memory:   233.3 Mb

     Self-consistent Calculation

     iteration #  1     ecut=    50.00 Ry     beta= 0.40
     Davidson diagonalization with overlap

---- Real-time Memory Report at c_bands before calling an iterative solver
           347 MiB given to the printing process from OS
           230 MiB allocation reported by mallinfo(arena+hblkhd)
          2094 MiB available memory on the node where the printing process lives
------------------
     c_bands:  1 eigenvalues not converged
     c_bands:  2 eigenvalues not converged
     c_bands:  2 eigenvalues not converged
     c_bands:  1 eigenvalues not converged
     c_bands:  2 eigenvalues not converged
     c_bands:  1 eigenvalues not converged
     c_bands:  2 eigenvalues not converged
     c_bands:  2 eigenvalues not converged
     c_bands:  2 eigenvalues not converged
     c_bands:  2 eigenvalues not converged
     c_bands:  1 eigenvalues not converged
     c_bands:  2 eigenvalues not converged
     c_bands:  2 eigenvalues not converged
     c_bands:  2 eigenvalues not converged
     c_bands:  2 eigenvalues not converged
     c_bands:  2 eigenvalues not converged
     c_bands:  2 eigenvalues not converged
     c_bands:  2 eigenvalues not converged
     c_bands:  2 eigenvalues not converged
     c_bands:  2 eigenvalues not converged
     c_bands:  2 eigenvalues not converged
     c_bands:  2 eigenvalues not converged
     c_bands:  2 eigenvalues not converged
     c_bands:  2 eigenvalues not converged
     c_bands:  2 eigenvalues not converged
     c_bands:  2 eigenvalues not converged
     c_bands:  2 eigenvalues not converged
     c_bands:  1 eigenvalues not converged
     c_bands:  2 eigenvalues not converged
     c_bands:  2 eigenvalues not converged
     c_bands:  2 eigenvalues not converged
     c_bands:  2 eigenvalues not converged
     c_bands:  2 eigenvalues not converged
     c_bands:  2 eigenvalues not converged
     c_bands:  2 eigenvalues not converged
     c_bands:  2 eigenvalues not converged
     c_bands:  2 eigenvalues not converged
     c_bands:  2 eigenvalues not converged
     c_bands:  2 eigenvalues not converged
     c_bands:  2 eigenvalues not converged
     c_bands:  2 eigenvalues not converged
     c_bands:  2 eigenvalues not converged
     c_bands:  2 eigenvalues not converged
     c_bands:  2 eigenvalues not converged
     c_bands:  2 eigenvalues not converged
     c_bands:  1 eigenvalues not converged
     c_bands:  2 eigenvalues not converged
     c_bands:  2 eigenvalues not converged
     c_bands:  2 eigenvalues not converged
     ethr =  1.00E-05,  avg # of iterations = 18.8

     total cpu time spent up to now is       58.6 secs

     total energy              =     -85.64254310 Ry
     estimated scf accuracy    <       0.01511586 Ry

     iteration #  2     ecut=    50.00 Ry     beta= 0.40
     Davidson diagonalization with overlap

---- Real-time Memory Report at c_bands before calling an iterative solver
           556 MiB given to the printing process from OS
           250 MiB allocation reported by mallinfo(arena+hblkhd)
          2049 MiB available memory on the node where the printing process lives
------------------
     ethr =  8.40E-05,  avg # of iterations =  1.1

     total cpu time spent up to now is       73.4 secs

     total energy              =     -85.64235033 Ry
     estimated scf accuracy    <       0.00444642 Ry

     iteration #  3     ecut=    50.00 Ry     beta= 0.40
     Davidson diagonalization with overlap

---- Real-time Memory Report at c_bands before calling an iterative solver
           558 MiB given to the printing process from OS
           252 MiB allocation reported by mallinfo(arena+hblkhd)
          2045 MiB available memory on the node where the printing process lives
------------------
     ethr =  2.47E-05,  avg # of iterations =  1.0

     total cpu time spent up to now is       88.3 secs

     total energy              =     -85.64258790 Ry
     estimated scf accuracy    <       0.00018549 Ry

     iteration #  4     ecut=    50.00 Ry     beta= 0.40
     Davidson diagonalization with overlap

---- Real-time Memory Report at c_bands before calling an iterative solver
           560 MiB given to the printing process from OS
           254 MiB allocation reported by mallinfo(arena+hblkhd)
          2041 MiB available memory on the node where the printing process lives
------------------
     ethr =  1.03E-06,  avg # of iterations =  5.5

     total cpu time spent up to now is      109.4 secs

     total energy              =     -85.64265249 Ry
     estimated scf accuracy    <       0.00000635 Ry

     iteration #  5     ecut=    50.00 Ry     beta= 0.40
     Davidson diagonalization with overlap

---- Real-time Memory Report at c_bands before calling an iterative solver
           562 MiB given to the printing process from OS
           256 MiB allocation reported by mallinfo(arena+hblkhd)
          2037 MiB available memory on the node where the printing process lives
------------------
     ethr =  3.53E-08,  avg # of iterations =  4.1

     total cpu time spent up to now is      130.4 secs

     total energy              =     -85.64265614 Ry
     estimated scf accuracy    <       0.00000196 Ry

     iteration #  6     ecut=    50.00 Ry     beta= 0.40
     Davidson diagonalization with overlap

---- Real-time Memory Report at c_bands before calling an iterative solver
           564 MiB given to the printing process from OS
           258 MiB allocation reported by mallinfo(arena+hblkhd)
          2033 MiB available memory on the node where the printing process lives
------------------
     ethr =  1.09E-08,  avg # of iterations =  2.1

     total cpu time spent up to now is      147.7 secs

     total energy              =     -85.64265640 Ry
     estimated scf accuracy    <       0.00000012 Ry

     iteration #  7     ecut=    50.00 Ry     beta= 0.40
     Davidson diagonalization with overlap

---- Real-time Memory Report at c_bands before calling an iterative solver
           566 MiB given to the printing process from OS
           260 MiB allocation reported by mallinfo(arena+hblkhd)
          2029 MiB available memory on the node where the printing process lives
------------------
     ethr =  6.69E-10,  avg # of iterations =  2.4

     total cpu time spent up to now is      164.7 secs

     total energy              =     -85.64265643 Ry
     estimated scf accuracy    <       0.00000002 Ry

     iteration #  8     ecut=    50.00 Ry     beta= 0.40
     Davidson diagonalization with overlap

---- Real-time Memory Report at c_bands before calling an iterative solver
           568 MiB given to the printing process from OS
           262 MiB allocation reported by mallinfo(arena+hblkhd)
          2025 MiB available memory on the node where the printing process lives
------------------
     ethr =  9.89E-11,  avg # of iterations =  3.1

     total cpu time spent up to now is      183.4 secs

     End of self-consistent calculation

          k = 0.0000 0.0000 0.0000 (  4033 PWs)   bands (ev):

    -7.6055  -7.6055  -4.2400  -4.2400  -4.2385  -4.2385   2.8554   2.8554
     3.0629   3.0629   3.4976   3.4976   4.4454   4.4454   4.4920   4.4920
     5.3612   5.3612   6.7860   6.7860   7.4020   7.4020   7.9559   7.9559
    11.0679  11.0691

     occupation numbers 
     1.0000   1.0000   1.0000   1.0000   1.0000   1.0000   1.0000   1.0000
     1.0000   1.0000   1.0000   1.0000   1.0000   1.0000   1.0000   1.0000
     1.0000   1.0000   0.0000   0.0000   0.0000   0.0000   0.0000   0.0000
     0.0000   0.0000

          k = 0.0000 0.0000 0.1247 (  4069 PWs)   bands (ev):

    -7.5044  -7.5032  -5.1913  -5.1883  -3.2539  -3.2525   2.6308   2.6321
     3.0310   3.2056   3.3052   3.7575   4.4008   4.5106   4.5797   4.6499
     5.2768   5.3843   6.6683   6.6879   7.1689   7.2569   7.6742   7.6884
    10.7302  10.7686

     occupation numbers 
     1.0000   1.0000   1.0000   1.0000   1.0000   1.0000   1.0000   1.0000
     1.0000   1.0000   1.0000   1.0000   1.0000   1.0000   1.0000   1.0000
     1.0000   1.0000   0.0000   0.0000   0.0000   0.0000   0.0000   0.0000
     0.0000   0.0000

          k = 0.0000 0.0000 0.2493 (  4075 PWs)   bands (ev):

    -7.2019  -7.1997  -6.0269  -6.0235  -2.4027  -2.3992   2.1315   2.1735
     3.1791   3.2836   3.3543   3.7749   4.5180   4.6745   4.6773   4.9340
     5.1202   5.3400   6.5470   6.5494   6.8047   6.9815   7.1320   7.2031
    10.2820  10.3009

     occupation numbers 
     1.0000   1.0000   1.0000   1.0000   1.0000   1.0000   1.0000   1.0000
     1.0000   1.0000   1.0000   1.0000   1.0000   1.0000   1.0000   1.0000
     1.0000   1.0000   0.0014   0.0013   0.0000   0.0000   0.0000   0.0000
     0.0000   0.0000

          k = 0.0000 0.0000-0.3740 (  4082 PWs)   bands (ev):

    -6.7049  -6.7049  -6.7019  -6.7019  -2.0265  -2.0265   1.8914   1.8914
     3.2796   3.2796   3.5722   3.5722   4.6584   4.6584   4.9074   4.9074
     5.1928   5.1928   6.5743   6.5743   6.6964   6.6964   6.9146   6.9146
    10.0978  10.0978

     occupation numbers 
     1.0000   1.0000   1.0000   1.0000   1.0000   1.0000   1.0000   1.0000
     1.0000   1.0000   1.0000   1.0000   1.0000   1.0000   1.0000   1.0000
     1.0000   1.0000   0.0006   0.0006   0.0000   0.0000   0.0000   0.0000
     0.0000   0.0000

          k = 0.0000 0.1924 0.0000 (  4093 PWs)   bands (ev):

    -7.4218  -7.4215  -4.3021  -4.2962  -4.1838  -4.1795   1.8319   1.9277
     2.4157   2.5638   2.9168   3.1508   4.6752   4.8474   5.0527   5.1456
     5.3244   5.4417   6.8868   6.9706   7.1183   7.2068   7.7014   7.8015
    10.5002  10.5410

     occupation numbers 
     1.0000   1.0000   1.0000   1.0000   1.0000   1.0000   1.0000   1.0000
     1.0000   1.0000   1.0000   1.0000   1.0000   1.0000   1.0000   1.0000
     1.0000   1.0000   0.0000   0.0000   0.0000   0.0000   0.0000   0.0000
     0.0000   0.0000

          k = 0.0000 0.1924 0.1247 (  4083 PWs)   bands (ev):

    -7.3220  -7.3206  -5.1281  -5.1248  -3.3511  -3.3484   1.9303   2.0090
     2.0994   2.2290   3.0146   3.2002   4.7789   4.9108   5.0945   5.2903
     5.4818   5.5777   6.7289   6.7541   6.9184   7.0566   7.5617   7.6230
    10.0932  10.1018

     occupation numbers 
     1.0000   1.0000   1.0000   1.0000   1.0000   1.0000   1.0000   1.0000
     1.0000   1.0000   1.0000   1.0000   1.0000   1.0000   1.0000   1.0000
     1.0000   1.0000   0.0000   0.0000   0.0000   0.0000   0.0000   0.0000
     0.0000   0.0000

          k = 0.0000 0.1924 0.2493 (  4091 PWs)   bands (ev):

    -7.0269  -7.0241  -5.9090  -5.9050  -2.6703  -2.6658   1.7788   1.8691
     2.2779   2.4485   3.1178   3.2990   4.5657   4.6425   4.7785   4.8877
     5.0611   5.1650   6.7880   6.8961   7.1305   7.2826   7.8355   7.8496
    10.1180  10.1454

     occupation numbers 
     1.0000   1.0000   1.0000   1.0000   1.0000   1.0000   1.0000   1.0000
     1.0000   1.0000   1.0000   1.0000   1.0000   1.0000   1.0000   1.0000
     1.0000   1.0000   0.0000   0.0000   0.0000   0.0000   0.0000   0.0000
     0.0000   0.0000

          k = 0.0000 0.1924-0.3740 (  4076 PWs)   bands (ev):

    -6.5678  -6.5660  -6.5290  -6.5275  -2.4197  -2.4190   1.7401   1.8197
     2.7436   2.9867   3.0693   3.2460   4.0220   4.2589   4.3669   4.5213
     4.7393   4.9355   6.9231   7.0635   7.5089   7.6421   8.0493   8.0569
    10.5337  10.5566

     occupation numbers 
     1.0000   1.0000   1.0000   1.0000   1.0000   1.0000   1.0000   1.0000
     1.0000   1.0000   1.0000   1.0000   1.0000   1.0000   1.0000   1.0000
     1.0000   1.0000   0.0000   0.0000   0.0000   0.0000   0.0000   0.0000
     0.0000   0.0000

          k = 0.0000 0.3849 0.0000 (  4056 PWs)   bands (ev):

    -6.9448  -6.9441  -4.6093  -4.6037  -4.0543  -4.0502   1.1072   1.1629
     1.7067   1.8662   2.4246   2.6372   3.6087   3.6828   4.9550   5.1031
     5.1888   5.3362   6.9931   7.1012   7.2322   7.2699   8.9415   8.9591
     9.4751   9.5053

     occupation numbers 
     1.0000   1.0000   1.0000   1.0000   1.0000   1.0000   1.0000   1.0000
     1.0000   1.0000   1.0000   1.0000   1.0000   1.0000   1.0000   1.0000
     1.0000   1.0000   0.0000   0.0000   0.0000   0.0000   0.0000   0.0000
     0.0000   0.0000

          k = 0.0000 0.3849 0.1247 (  4068 PWs)   bands (ev):

    -6.8475  -6.8449  -5.0935  -5.0889  -3.6097  -3.6032   0.9575   0.9853
     1.4491   1.5460   2.5460   2.6824   4.3407   4.5977   4.8209   5.1068
     5.1189   5.3079   6.9263   6.9906   7.4299   7.5323   8.0382   8.0653
     9.4087   9.4727

     occupation numbers 
     1.0000   1.0000   1.0000   1.0000   1.0000   1.0000   1.0000   1.0000
     1.0000   1.0000   1.0000   1.0000   1.0000   1.0000   1.0000   1.0000
     1.0000   1.0000   0.0000   0.0000   0.0000   0.0000   0.0000   0.0000
     0.0000   0.0000

          k = 0.0000 0.3849 0.2493 (  4069 PWs)   bands (ev):

    -6.5768  -6.5719  -5.6701  -5.6636  -3.2998  -3.2933   0.7927   0.8369
     1.6924   1.8097   2.6950   2.8099   4.0689   4.2272   4.4564   4.5534
     5.8869   5.9396   6.7804   6.8455   7.4370   7.5733   7.9529   8.2970
     9.8932  10.0374

     occupation numbers 
     1.0000   1.0000   1.0000   1.0000   1.0000   1.0000   1.0000   1.0000
     1.0000   1.0000   1.0000   1.0000   1.0000   1.0000   1.0000   1.0000
     0.9999   0.9996   0.0000   0.0000   0.0000   0.0000   0.0000   0.0000
     0.0000   0.0000

          k = 0.0000 0.3849-0.3740 (  4076 PWs)   bands (ev):

    -6.2584  -6.2564  -6.0712  -6.0690  -3.2688  -3.2672   0.8844   0.9261
     2.2139   2.3390   2.5922   2.7096   3.8098   3.8762   4.0952   4.1788
     5.0618   5.1617   7.3527   7.5520   8.0288   8.1322   8.4369   8.6578
    10.5587  10.7166

     occupation numbers 
     1.0000   1.0000   1.0000   1.0000   1.0000   1.0000   1.0000   1.0000
     1.0000   1.0000   1.0000   1.0000   1.0000   1.0000   1.0000   1.0000
     1.0000   1.0000   0.0000   0.0000   0.0000   0.0000   0.0000   0.0000
     0.0000   0.0000

          k = 0.0000-0.5773 0.0000 (  4082 PWs)   bands (ev):

    -6.5847  -6.5847  -4.9289  -4.9289  -3.9800  -3.9800   1.0813   1.0813
     1.5922   1.5922   2.4325   2.4325   2.6423   2.6423   4.9363   4.9363
     5.2290   5.2290   7.0439   7.0439   7.1641   7.1641   9.0946   9.0946
     9.8952   9.8952

     occupation numbers 
     1.0000   1.0000   1.0000   1.0000   1.0000   1.0000   1.0000   1.0000
     1.0000   1.0000   1.0000   1.0000   1.0000   1.0000   1.0000   1.0000
     1.0000   1.0000   0.0000   0.0000   0.0000   0.0000   0.0000   0.0000
     0.0000   0.0000

          k = 0.0000-0.5773 0.1247 (  4060 PWs)   bands (ev):

    -6.5098  -6.5060  -5.0901  -5.0856  -3.9314  -3.9231   1.0445   1.0842
     1.2516   1.3603   2.3762   2.5365   3.2728   3.4495   4.5702   4.7381
     4.8905   4.9701   7.0340   7.0739   7.6312   7.8550   9.3166   9.3420
     9.4600   9.5719

     occupation numbers 
     1.0000   1.0000   1.0000   1.0000   1.0000   1.0000   1.0000   1.0000
     1.0000   1.0000   1.0000   1.0000   1.0000   1.0000   1.0000   1.0000
     1.0000   1.0000   0.0000   0.0000   0.0000   0.0000   0.0000   0.0000
     0.0000   0.0000

          k = 0.0000-0.5773 0.2493 (  4058 PWs)   bands (ev):

    -6.2961  -6.2895  -5.4475  -5.4397  -3.8405  -3.8332   0.5219   0.5521
     1.7090   1.8182   2.4940   2.6098   3.7162   3.9895   4.1799   4.3654
     4.8569   5.0525   7.3909   7.4808   8.0007   8.0739   8.4165   8.7523
    10.1866  10.4125

     occupation numbers 
     1.0000   1.0000   1.0000   1.0000   1.0000   1.0000   1.0000   1.0000
     1.0000   1.0000   1.0000   1.0000   1.0000   1.0000   1.0000   1.0000
     1.0000   1.0000   0.0000   0.0000   0.0000   0.0000   0.0000   0.0000
     0.0000   0.0000

          k = 0.0000-0.5773-0.3740 (  4044 PWs)   bands (ev):

    -6.0783  -6.0783  -5.7208  -5.7208  -3.7952  -3.7952   0.3341   0.3341
     2.2497   2.2497   2.3833   2.3833   3.6693   3.6693   4.0272   4.0272
     5.8974   5.8974   6.8515   6.8515   7.9319   7.9319   8.8022   8.8022
    10.6593  10.6593

     occupation numbers 
     1.0000   1.0000   1.0000   1.0000   1.0000   1.0000   1.0000   1.0000
     1.0000   1.0000   1.0000   1.0000   1.0000   1.0000   1.0000   1.0000
     0.9999   0.9999   0.0000   0.0000   0.0000   0.0000   0.0000   0.0000
     0.0000   0.0000

          k = 0.1667 0.0962 0.0000 (  4093 PWs)   bands (ev):

    -7.4218  -7.4215  -4.3020  -4.2962  -4.1839  -4.1795   1.8319   1.9277
     2.4157   2.5638   2.9167   3.1508   4.6752   4.8474   5.0527   5.1456
     5.3244   5.4417   6.8868   6.9706   7.1183   7.2068   7.7014   7.8015
    10.5002  10.5412

     occupation numbers 
     1.0000   1.0000   1.0000   1.0000   1.0000   1.0000   1.0000   1.0000
     1.0000   1.0000   1.0000   1.0000   1.0000   1.0000   1.0000   1.0000
     1.0000   1.0000   0.0000   0.0000   0.0000   0.0000   0.0000   0.0000
     0.0000   0.0000

          k = 0.1667 0.0962 0.1247 (  4083 PWs)   bands (ev):

    -7.3247  -7.3233  -5.1000  -5.0968  -3.4098  -3.4071   1.8957   1.9827
     2.6416   2.8343   2.9201   3.2796   4.3691   4.4177   4.5107   4.6938
     4.9439   5.1348   7.1290   7.2261   7.5468   7.6718   7.9486   8.0456
    10.7990  10.8407

     occupation numbers 
     1.0000   1.0000   1.0000   1.0000   1.0000   1.0000   1.0000   1.0000
     1.0000   1.0000   1.0000   1.0000   1.0000   1.0000   1.0000   1.0000
     1.0000   1.0000   0.0000   0.0000   0.0000   0.0000   0.0000   0.0000
     0.0000   0.0000

          k = 0.1667 0.0962 0.2493 (  4091 PWs)   bands (ev):

    -7.0327  -7.0301  -5.8915  -5.8876  -2.7232  -2.7187   1.9033   1.9713
     2.7612   2.9230   3.1837   3.4293   3.8369   4.0618   4.2825   4.3720
     4.7605   4.9150   7.1575   7.1981   7.8090   7.9025   7.9719   8.0377
    10.7354  10.7557

     occupation numbers 
     1.0000   1.0000   1.0000   1.0000   1.0000   1.0000   1.0000   1.0000
     1.0000   1.0000   1.0000   1.0000   1.0000   1.0000   1.0000   1.0000
     1.0000   1.0000   0.0000   0.0000   0.0000   0.0000   0.0000   0.0000
     0.0000   0.0000

          k = 0.1667 0.0962-0.3740 (  4076 PWs)   bands (ev):

    -6.5678  -6.5660  -6.5290  -6.5275  -2.4197  -2.4190   1.7401   1.8197
     2.7437   2.9868   3.0692   3.2460   4.0220   4.2589   4.3669   4.5213
     4.7392   4.9355   6.9231   7.0635   7.5089   7.6420   8.0494   8.0569
    10.5336  10.5564

     occupation numbers 
     1.0000   1.0000   1.0000   1.0000   1.0000   1.0000   1.0000   1.0000
     1.0000   1.0000   1.0000   1.0000   1.0000   1.0000   1.0000   1.0000
     1.0000   1.0000   0.0000   0.0000   0.0000   0.0000   0.0000   0.0000
     0.0000   0.0000

          k = 0.1667 0.2887 0.0000 (  4065 PWs)   bands (ev):

    -7.0870  -7.0863  -4.4316  -4.4211  -4.1654  -4.1565   1.3053   1.4199
     1.5813   1.6902   2.9735   3.1359   4.1422   4.2993   4.4268   4.4978
     4.8978   4.9460   7.6496   7.6881   7.7418   7.7750   8.1050   8.1224
    10.3752  10.3817

     occupation numbers 
     1.0000   1.0000   1.0000   1.0000   1.0000   1.0000   1.0000   1.0000
     1.0000   1.0000   1.0000   1.0000   1.0000   1.0000   1.0000   1.0000
     1.0000   1.0000   0.0000   0.0000   0.0000   0.0000   0.0000   0.0000
     0.0000   0.0000

          k = 0.1667 0.2887 0.1247 (  4075 PWs)   bands (ev):

    -6.9948  -6.9927  -5.0162  -5.0121  -3.6447  -3.6394   1.3193   1.3846
     1.7440   1.7998   2.8759   3.0101   3.6975   3.7924   4.4856   4.6029
     5.5371   5.6030   6.9960   7.0666   7.7896   7.8315   8.4180   8.4506
    10.3521  10.3836

     occupation numbers 
     1.0000   1.0000   1.0000   1.0000   1.0000   1.0000   1.0000   1.0000
     1.0000   1.0000   1.0000   1.0000   1.0000   1.0000   1.0000   1.0000
     1.0000   1.0000   0.0000   0.0000   0.0000   0.0000   0.0000   0.0000
     0.0000   0.0000

          k = 0.1667 0.2887 0.2493 (  4071 PWs)   bands (ev):

    -6.7217  -6.7179  -5.6914  -5.6862  -3.1925  -3.1865   1.3320   1.4257
     1.8412   1.9769   2.7080   2.8244   3.3813   3.5635   4.9503   5.0787
     5.2823   5.4036   6.9381   6.9917   7.7816   7.7929   8.6010   8.6557
    10.5361  10.5573

     occupation numbers 
     1.0000   1.0000   1.0000   1.0000   1.0000   1.0000   1.0000   1.0000
     1.0000   1.0000   1.0000   1.0000   1.0000   1.0000   1.0000   1.0000
     1.0000   1.0000   0.0000   0.0000   0.0000   0.0000   0.0000   0.0000
     0.0000   0.0000

          k = 0.1667 0.2887-0.3740 (  4080 PWs)   bands (ev):

    -6.3250  -6.3219  -6.2273  -6.2241  -3.0213  -3.0197   1.3071   1.4044
     2.1451   2.1594   2.2719   2.3743   3.9601   4.1216   4.5321   4.5651
     5.2693   5.3534   6.8602   6.9392   8.2507   8.2664   8.4563   8.4793
    10.7255  10.7666

     occupation numbers 
     1.0000   1.0000   1.0000   1.0000   1.0000   1.0000   1.0000   1.0000
     1.0000   1.0000   1.0000   1.0000   1.0000   1.0000   1.0000   1.0000
     1.0000   1.0000   0.0000   0.0000   0.0000   0.0000   0.0000   0.0000
     0.0000   0.0000

          k = 0.1667 0.4811 0.0000 (  4069 PWs)   bands (ev):

    -6.6121  -6.6113  -4.7417  -4.7353  -4.1765  -4.1708   1.1554   1.2272
     1.4362   1.5442   2.5269   2.7255   3.0199   3.1429   4.0707   4.1581
     4.3099   4.3504   7.8841   7.9201   8.2539   8.2675   9.3907   9.4012
     9.9785   9.9964

     occupation numbers 
     1.0000   1.0000   1.0000   1.0000   1.0000   1.0000   1.0000   1.0000
     1.0000   1.0000   1.0000   1.0000   1.0000   1.0000   1.0000   1.0000
     1.0000   1.0000   0.0000   0.0000   0.0000   0.0000   0.0000   0.0000
     0.0000   0.0000

          k = 0.1667 0.4811 0.1247 (  4064 PWs)   bands (ev):

    -6.5276  -6.5238  -5.0455  -5.0401  -3.9458  -3.9368   0.8883   0.9216
     1.3946   1.4953   2.4516   2.5824   3.2548   3.4209   4.1324   4.2622
     4.9765   5.0943   7.4328   7.4975   8.4734   8.5073   8.6255   8.6979
    10.1273  10.1838

     occupation numbers 
     1.0000   1.0000   1.0000   1.0000   1.0000   1.0000   1.0000   1.0000
     1.0000   1.0000   1.0000   1.0000   1.0000   1.0000   1.0000   1.0000
     1.0000   1.0000   0.0000   0.0000   0.0000   0.0000   0.0000   0.0000
     0.0000   0.0000

          k = 0.1667 0.4811 0.2493 (  4057 PWs)   bands (ev):

    -6.2920  -6.2850  -5.4907  -5.4823  -3.7464  -3.7384   0.6211   0.6638
     1.3771   1.4531   2.1855   2.2590   3.5003   3.6275   5.0877   5.2940
     5.6577   5.9132   6.7884   6.8524   7.5584   7.6292   8.6537   8.7664
    10.4396  10.5194

     occupation numbers 
     1.0000   1.0000   1.0000   1.0000   1.0000   1.0000   1.0000   1.0000
     1.0000   1.0000   1.0000   1.0000   1.0000   1.0000   1.0000   1.0000
     1.0000   0.9998   0.0000   0.0000   0.0000   0.0000   0.0000   0.0000
     0.0000   0.0000

          k = 0.1667 0.4811-0.3740 (  4058 PWs)   bands (ev):

    -6.0295  -6.0271  -5.8115  -5.8084  -3.7027  -3.7009   0.6079   0.6356
     1.5639   1.5943   1.7086   1.7921   4.3537   4.4564   4.8595   4.9000
     5.6759   5.7518   6.9917   7.0942   7.6764   7.7402   8.3239   8.3724
    10.9101  10.9455

     occupation numbers 
     1.0000   1.0000   1.0000   1.0000   1.0000   1.0000   1.0000   1.0000
     1.0000   1.0000   1.0000   1.0000   1.0000   1.0000   1.0000   1.0000
     1.0000   1.0000   0.0000   0.0000   0.0000   0.0000   0.0000   0.0000
     0.0000   0.0000

          k = 0.1667-0.4811 0.0000 (  4069 PWs)   bands (ev):

    -6.6121  -6.6113  -4.7417  -4.7353  -4.1765  -4.1708   1.1554   1.2273
     1.4362   1.5442   2.5269   2.7255   3.0199   3.1429   4.0707   4.1581
     4.3099   4.3504   7.8841   7.9201   8.2540   8.2676   9.3907   9.4012
     9.9786   9.9964

     occupation numbers 
     1.0000   1.0000   1.0000   1.0000   1.0000   1.0000   1.0000   1.0000
     1.0000   1.0000   1.0000   1.0000   1.0000   1.0000   1.0000   1.0000
     1.0000   1.0000   0.0000   0.0000   0.0000   0.0000   0.0000   0.0000
     0.0000   0.0000

          k = 0.1667-0.4811 0.1247 (  4064 PWs)   bands (ev):

    -6.5390  -6.5354  -4.9565  -4.9515  -4.0638  -4.0545   1.0849   1.1380
     1.4895   1.5619   2.4741   2.6343   2.9042   3.2718   3.7339   3.9261
     5.2032   5.2659   7.2804   7.3407   8.3688   8.4206   9.4406   9.4659
    10.2328  10.2898

     occupation numbers 
     1.0000   1.0000   1.0000   1.0000   1.0000   1.0000   1.0000   1.0000
     1.0000   1.0000   1.0000   1.0000   1.0000   1.0000   1.0000   1.0000
     1.0000   1.0000   0.0000   0.0000   0.0000   0.0000   0.0000   0.0000
     0.0000   0.0000

          k = 0.1667-0.4811 0.2493 (  4057 PWs)   bands (ev):

    -6.3162  -6.3099  -5.4215  -5.4141  -3.8322  -3.8243   0.8761   0.9494
     1.2778   1.3449   2.1380   2.2129   3.6111   3.8198   4.5455   4.6843
     5.4617   5.5917   7.0490   7.0812   8.2306   8.2967   8.7179   8.7621
    10.6946  10.7408

     occupation numbers 
     1.0000   1.0000   1.0000   1.0000   1.0000   1.0000   1.0000   1.0000
     1.0000   1.0000   1.0000   1.0000   1.0000   1.0000   1.0000   1.0000
     1.0000   1.0000   0.0000   0.0000   0.0000   0.0000   0.0000   0.0000
     0.0000   0.0000

          k = 0.1667-0.4811-0.3740 (  4058 PWs)   bands (ev):

    -6.0295  -6.0271  -5.8115  -5.8084  -3.7027  -3.7009   0.6079   0.6356
     1.5639   1.5943   1.7085   1.7920   4.3537   4.4564   4.8595   4.9000
     5.6759   5.7518   6.9917   7.0943   7.6765   7.7402   8.3239   8.3723
    10.9102  10.9455

     occupation numbers 
     1.0000   1.0000   1.0000   1.0000   1.0000   1.0000   1.0000   1.0000
     1.0000   1.0000   1.0000   1.0000   1.0000   1.0000   1.0000   1.0000
     1.0000   1.0000   0.0000   0.0000   0.0000   0.0000   0.0000   0.0000
     0.0000   0.0000

          k = 0.1667-0.2887 0.0000 (  4065 PWs)   bands (ev):

    -7.0870  -7.0864  -4.4317  -4.4211  -4.1654  -4.1565   1.3053   1.4199
     1.5813   1.6903   2.9736   3.1360   4.1422   4.2993   4.4268   4.4978
     4.8978   4.9460   7.6496   7.6881   7.7419   7.7750   8.1051   8.1224
    10.3753  10.3817

     occupation numbers 
     1.0000   1.0000   1.0000   1.0000   1.0000   1.0000   1.0000   1.0000
     1.0000   1.0000   1.0000   1.0000   1.0000   1.0000   1.0000   1.0000
     1.0000   1.0000   0.0000   0.0000   0.0000   0.0000   0.0000   0.0000
     0.0000   0.0000

          k = 0.1667-0.2887 0.1247 (  4075 PWs)   bands (ev):

    -6.9948  -6.9927  -5.0162  -5.0122  -3.6447  -3.6394   1.3193   1.3847
     1.7440   1.7998   2.8759   3.0101   3.6975   3.7924   4.4856   4.6029
     5.5371   5.6030   6.9960   7.0667   7.7897   7.8316   8.4179   8.4505
    10.3527  10.3843

     occupation numbers 
     1.0000   1.0000   1.0000   1.0000   1.0000   1.0000   1.0000   1.0000
     1.0000   1.0000   1.0000   1.0000   1.0000   1.0000   1.0000   1.0000
     1.0000   1.0000   0.0000   0.0000   0.0000   0.0000   0.0000   0.0000
     0.0000   0.0000

          k = 0.1667-0.2887 0.2493 (  4071 PWs)   bands (ev):

    -6.7218  -6.7179  -5.6914  -5.6862  -3.1925  -3.1865   1.3320   1.4257
     1.8412   1.9768   2.7080   2.8244   3.3813   3.5635   4.9503   5.0787
     5.2823   5.4037   6.9381   6.9917   7.7816   7.7929   8.6009   8.6557
    10.5360  10.5572

     occupation numbers 
     1.0000   1.0000   1.0000   1.0000   1.0000   1.0000   1.0000   1.0000
     1.0000   1.0000   1.0000   1.0000   1.0000   1.0000   1.0000   1.0000
     1.0000   1.0000   0.0000   0.0000   0.0000   0.0000   0.0000   0.0000
     0.0000   0.0000

          k = 0.1667-0.2887-0.3740 (  4080 PWs)   bands (ev):

    -6.3250  -6.3219  -6.2273  -6.2242  -3.0213  -3.0197   1.3071   1.4044
     2.1450   2.1594   2.2719   2.3743   3.9602   4.1217   4.5321   4.5652
     5.2693   5.3535   6.8603   6.9393   8.2507   8.2663   8.4562   8.4792
    10.7255  10.7664

     occupation numbers 
     1.0000   1.0000   1.0000   1.0000   1.0000   1.0000   1.0000   1.0000
     1.0000   1.0000   1.0000   1.0000   1.0000   1.0000   1.0000   1.0000
     1.0000   1.0000   0.0000   0.0000   0.0000   0.0000   0.0000   0.0000
     0.0000   0.0000

          k = 0.1667-0.0962 0.0000 (  4093 PWs)   bands (ev):

    -7.4218  -7.4215  -4.3021  -4.2962  -4.1838  -4.1795   1.8318   1.9277
     2.4157   2.5638   2.9168   3.1508   4.6752   4.8474   5.0527   5.1456
     5.3244   5.4417   6.8868   6.9706   7.1183   7.2068   7.7014   7.8015
    10.5002  10.5409

     occupation numbers 
     1.0000   1.0000   1.0000   1.0000   1.0000   1.0000   1.0000   1.0000
     1.0000   1.0000   1.0000   1.0000   1.0000   1.0000   1.0000   1.0000
     1.0000   1.0000   0.0000   0.0000   0.0000   0.0000   0.0000   0.0000
     0.0000   0.0000

          k = 0.1667-0.0962 0.1247 (  4083 PWs)   bands (ev):

    -7.3220  -7.3206  -5.1281  -5.1248  -3.3511  -3.3484   1.9302   2.0090
     2.0994   2.2290   3.0146   3.2002   4.7789   4.9108   5.0945   5.2903
     5.4818   5.5777   6.7289   6.7541   6.9184   7.0566   7.5617   7.6229
    10.0932  10.1018

     occupation numbers 
     1.0000   1.0000   1.0000   1.0000   1.0000   1.0000   1.0000   1.0000
     1.0000   1.0000   1.0000   1.0000   1.0000   1.0000   1.0000   1.0000
     1.0000   1.0000   0.0000   0.0000   0.0000   0.0000   0.0000   0.0000
     0.0000   0.0000

          k = 0.1667-0.0962 0.2493 (  4091 PWs)   bands (ev):

    -7.0269  -7.0241  -5.9090  -5.9050  -2.6703  -2.6658   1.7788   1.8691
     2.2779   2.4485   3.1178   3.2990   4.5657   4.6425   4.7785   4.8877
     5.0611   5.1650   6.7880   6.8961   7.1305   7.2826   7.8355   7.8496
    10.1180  10.1454

     occupation numbers 
     1.0000   1.0000   1.0000   1.0000   1.0000   1.0000   1.0000   1.0000
     1.0000   1.0000   1.0000   1.0000   1.0000   1.0000   1.0000   1.0000
     1.0000   1.0000   0.0000   0.0000   0.0000   0.0000   0.0000   0.0000
     0.0000   0.0000

          k = 0.1667-0.0962-0.3740 (  4076 PWs)   bands (ev):

    -6.5678  -6.5660  -6.5290  -6.5276  -2.4197  -2.4190   1.7401   1.8197
     2.7436   2.9867   3.0693   3.2461   4.0220   4.2589   4.3669   4.5213
     4.7393   4.9355   6.9232   7.0635   7.5089   7.6421   8.0493   8.0568
    10.5337  10.5567

     occupation numbers 
     1.0000   1.0000   1.0000   1.0000   1.0000   1.0000   1.0000   1.0000
     1.0000   1.0000   1.0000   1.0000   1.0000   1.0000   1.0000   1.0000
     1.0000   1.0000   0.0000   0.0000   0.0000   0.0000   0.0000   0.0000
     0.0000   0.0000

          k = 0.3333 0.1925 0.0000 (  4056 PWs)   bands (ev):

    -6.9448  -6.9441  -4.6093  -4.6037  -4.0543  -4.0503   1.1072   1.1629
     1.7067   1.8662   2.4245   2.6372   3.6087   3.6829   4.9549   5.1031
     5.1887   5.3361   6.9931   7.1012   7.2322   7.2699   8.9415   8.9592
     9.4751   9.5053

     occupation numbers 
     1.0000   1.0000   1.0000   1.0000   1.0000   1.0000   1.0000   1.0000
     1.0000   1.0000   1.0000   1.0000   1.0000   1.0000   1.0000   1.0000
     1.0000   1.0000   0.0000   0.0000   0.0000   0.0000   0.0000   0.0000
     0.0000   0.0000

          k = 0.3333 0.1925 0.1247 (  4068 PWs)   bands (ev):

    -6.8653  -6.8629  -4.9283  -4.9243  -3.8732  -3.8669   1.3898   1.5024
     1.9028   2.0216   2.6359   2.8715   2.8898   3.1153   4.4752   4.7296
     4.9170   5.0815   7.1153   7.2119   7.8259   8.0622   9.3509   9.3650
    10.0674  10.1837

     occupation numbers 
     1.0000   1.0000   1.0000   1.0000   1.0000   1.0000   1.0000   1.0000
     1.0000   1.0000   1.0000   1.0000   1.0000   1.0000   1.0000   1.0000
     1.0000   1.0000   0.0000   0.0000   0.0000   0.0000   0.0000   0.0000
     0.0000   0.0000

          k = 0.3333 0.1925 0.2493 (  4069 PWs)   bands (ev):

    -6.6155  -6.6114  -5.5559  -5.5506  -3.4952  -3.4889   1.2684   1.3425
     2.0462   2.2083   2.6549   2.8025   3.3875   3.7488   4.0075   4.1825
     4.5166   4.7423   7.5333   7.5866   8.3825   8.5428   9.0228   9.0382
    10.6993  10.8148

     occupation numbers 
     1.0000   1.0000   1.0000   1.0000   1.0000   1.0000   1.0000   1.0000
     1.0000   1.0000   1.0000   1.0000   1.0000   1.0000   1.0000   1.0000
     1.0000   1.0000   0.0000   0.0000   0.0000   0.0000   0.0000   0.0000
     0.0000   0.0000

          k = 0.3333 0.1925-0.3740 (  4076 PWs)   bands (ev):

    -6.2584  -6.2564  -6.0712  -6.0691  -3.2688  -3.2672   0.8844   0.9261
     2.2139   2.3390   2.5921   2.7095   3.8098   3.8761   4.0952   4.1788
     5.0617   5.1617   7.3527   7.5520   8.0289   8.1323   8.4368   8.6578
    10.5587  10.7166

     occupation numbers 
     1.0000   1.0000   1.0000   1.0000   1.0000   1.0000   1.0000   1.0000
     1.0000   1.0000   1.0000   1.0000   1.0000   1.0000   1.0000   1.0000
     1.0000   1.0000   0.0000   0.0000   0.0000   0.0000   0.0000   0.0000
     0.0000   0.0000

          k = 0.3333 0.3849 0.0000 (  4069 PWs)   bands (ev):

    -6.6121  -6.6113  -4.7416  -4.7353  -4.1766  -4.1709   1.1554   1.2273
     1.4362   1.5441   2.5269   2.7255   3.0199   3.1429   4.0707   4.1581
     4.3098   4.3504   7.8840   7.9200   8.2539   8.2675   9.3907   9.4012
     9.9785   9.9964

     occupation numbers 
     1.0000   1.0000   1.0000   1.0000   1.0000   1.0000   1.0000   1.0000
     1.0000   1.0000   1.0000   1.0000   1.0000   1.0000   1.0000   1.0000
     1.0000   1.0000   0.0000   0.0000   0.0000   0.0000   0.0000   0.0000
     0.0000   0.0000

          k = 0.3333 0.3849 0.1247 (  4064 PWs)   bands (ev):

    -6.5390  -6.5353  -4.9565  -4.9515  -4.0638  -4.0546   1.0849   1.1379
     1.4895   1.5619   2.4740   2.6343   2.9042   3.2718   3.7339   3.9261
     5.2032   5.2659   7.2804   7.3407   8.3687   8.4205   9.4407   9.4660
    10.2327  10.2898

     occupation numbers 
     1.0000   1.0000   1.0000   1.0000   1.0000   1.0000   1.0000   1.0000
     1.0000   1.0000   1.0000   1.0000   1.0000   1.0000   1.0000   1.0000
     1.0000   1.0000   0.0000   0.0000   0.0000   0.0000   0.0000   0.0000
     0.0000   0.0000

          k = 0.3333 0.3849 0.2493 (  4057 PWs)   bands (ev):

    -6.3161  -6.3099  -5.4215  -5.4141  -3.8322  -3.8243   0.8761   0.9494
     1.2778   1.3449   2.1379   2.2129   3.6111   3.8198   4.5455   4.6842
     5.4617   5.5916   7.0490   7.0812   8.2306   8.2966   8.7180   8.7621
    10.6946  10.7407

     occupation numbers 
     1.0000   1.0000   1.0000   1.0000   1.0000   1.0000   1.0000   1.0000
     1.0000   1.0000   1.0000   1.0000   1.0000   1.0000   1.0000   1.0000
     1.0000   1.0000   0.0000   0.0000   0.0000   0.0000   0.0000   0.0000
     0.0000   0.0000

          k = 0.3333 0.3849-0.3740 (  4058 PWs)   bands (ev):

    -6.0294  -6.0270  -5.8115  -5.8084  -3.7027  -3.7009   0.6079   0.6356
     1.5638   1.5943   1.7086   1.7921   4.3537   4.4564   4.8594   4.9000
     5.6759   5.7518   6.9917   7.0943   7.6765   7.7402   8.3239   8.3723
    10.9102  10.9455

     occupation numbers 
     1.0000   1.0000   1.0000   1.0000   1.0000   1.0000   1.0000   1.0000
     1.0000   1.0000   1.0000   1.0000   1.0000   1.0000   1.0000   1.0000
     1.0000   1.0000   0.0000   0.0000   0.0000   0.0000   0.0000   0.0000
     0.0000   0.0000

          k = 0.3333 0.5774 0.0000 (  4032 PWs)   bands (ev):

    -6.4118  -6.4118  -4.5609  -4.5576  -4.5576  -4.5457   1.3050   1.4910
     1.4910   1.5085   2.8464   2.8464   2.9402   3.1514   3.1514   3.1707
     3.5248   3.5248   8.8959   8.9365   9.1048   9.1048   9.3600   9.3600
    10.9972  10.9973

     occupation numbers 
     1.0000   1.0000   1.0000   1.0000   1.0000   1.0000   1.0000   1.0000
     1.0000   1.0000   1.0000   1.0000   1.0000   1.0000   1.0000   1.0000
     1.0000   1.0000   0.0000   0.0000   0.0000   0.0000   0.0000   0.0000
     0.0000   0.0000

          k = 0.3333 0.5774 0.1247 (  4083 PWs)   bands (ev):

    -6.3389  -6.3342  -4.9544  -4.9506  -4.2251  -4.2148   1.0025   1.0183
     1.3915   1.5575   2.2074   2.3157   2.9287   3.1124   3.9521   3.9944
     4.3360   4.5288   8.3514   8.5070   8.8270   8.9520   8.9590   8.9913
    11.1896  11.2399

     occupation numbers 
     1.0000   1.0000   1.0000   1.0000   1.0000   1.0000   1.0000   1.0000
     1.0000   1.0000   1.0000   1.0000   1.0000   1.0000   1.0000   1.0000
     1.0000   1.0000   0.0000   0.0000   0.0000   0.0000   0.0000   0.0000
     0.0000   0.0000

          k = 0.3333 0.5774 0.2493 (  4077 PWs)   bands (ev):

    -6.1235  -6.1148  -5.3831  -5.3738  -3.9853  -3.9762   0.8153   0.8706
     0.9850   1.0448   1.4678   1.5798   3.9811   4.1138   5.0562   5.2090
     5.4057   5.6950   7.2082   7.3216   8.0430   8.1293   8.2462   8.2805
    11.8109  11.8404

     occupation numbers 
     1.0000   1.0000   1.0000   1.0000   1.0000   1.0000   1.0000   1.0000
     1.0000   1.0000   1.0000   1.0000   1.0000   1.0000   1.0000   1.0000
     1.0000   1.0000   0.0000   0.0000   0.0000   0.0000   0.0000   0.0000
     0.0000   0.0000

          k = 0.3333 0.5774-0.3740 (  4056 PWs)   bands (ev):

    -5.7907  -5.7907  -5.7837  -5.7763  -3.8906  -3.8906   0.8054   0.8054
     0.9566   1.0102   1.0839   1.0840   4.9250   4.9250   5.9249   5.9249
     6.1766   6.2698   6.2698   6.3195   7.4382   7.5079   7.6657   7.6657
    12.0285  12.0285

     occupation numbers 
     1.0000   1.0000   1.0000   1.0000   1.0000   1.0000   1.0000   1.0000
     1.0000   1.0000   1.0000   1.0000   1.0000   1.0000   0.9998   0.9998
     0.8080   0.4612   0.4611   0.2695   0.0000   0.0000   0.0000   0.0000
     0.0000   0.0000

          k = 0.3333-0.3849 0.0000 (  4069 PWs)   bands (ev):

    -6.6121  -6.6113  -4.7417  -4.7354  -4.1765  -4.1708   1.1554   1.2272
     1.4362   1.5442   2.5270   2.7255   3.0199   3.1429   4.0707   4.1581
     4.3099   4.3504   7.8841   7.9201   8.2540   8.2676   9.3907   9.4012
     9.9786   9.9964

     occupation numbers 
     1.0000   1.0000   1.0000   1.0000   1.0000   1.0000   1.0000   1.0000
     1.0000   1.0000   1.0000   1.0000   1.0000   1.0000   1.0000   1.0000
     1.0000   1.0000   0.0000   0.0000   0.0000   0.0000   0.0000   0.0000
     0.0000   0.0000

          k = 0.3333-0.3849 0.1247 (  4064 PWs)   bands (ev):

    -6.5276  -6.5238  -5.0455  -5.0401  -3.9458  -3.9368   0.8883   0.9216
     1.3946   1.4952   2.4517   2.5825   3.2548   3.4209   4.1324   4.2622
     4.9765   5.0943   7.4328   7.4976   8.4734   8.5073   8.6255   8.6979
    10.1273  10.1838

     occupation numbers 
     1.0000   1.0000   1.0000   1.0000   1.0000   1.0000   1.0000   1.0000
     1.0000   1.0000   1.0000   1.0000   1.0000   1.0000   1.0000   1.0000
     1.0000   1.0000   0.0000   0.0000   0.0000   0.0000   0.0000   0.0000
     0.0000   0.0000

          k = 0.3333-0.3849 0.2493 (  4057 PWs)   bands (ev):

    -6.2920  -6.2850  -5.4907  -5.4823  -3.7463  -3.7384   0.6212   0.6638
     1.3771   1.4531   2.1855   2.2591   3.5004   3.6275   5.0877   5.2940
     5.6577   5.9132   6.7884   6.8524   7.5584   7.6292   8.6537   8.7664
    10.4396  10.5194

     occupation numbers 
     1.0000   1.0000   1.0000   1.0000   1.0000   1.0000   1.0000   1.0000
     1.0000   1.0000   1.0000   1.0000   1.0000   1.0000   1.0000   1.0000
     1.0000   0.9998   0.0000   0.0000   0.0000   0.0000   0.0000   0.0000
     0.0000   0.0000

          k = 0.3333-0.3849-0.3740 (  4058 PWs)   bands (ev):

    -6.0295  -6.0271  -5.8115  -5.8084  -3.7027  -3.7009   0.6079   0.6356
     1.5639   1.5943   1.7085   1.7921   4.3537   4.4564   4.8595   4.9000
     5.6759   5.7519   6.9917   7.0942   7.6764   7.7402   8.3239   8.3723
    10.9102  10.9455

     occupation numbers 
     1.0000   1.0000   1.0000   1.0000   1.0000   1.0000   1.0000   1.0000
     1.0000   1.0000   1.0000   1.0000   1.0000   1.0000   1.0000   1.0000
     1.0000   1.0000   0.0000   0.0000   0.0000   0.0000   0.0000   0.0000
     0.0000   0.0000

          k = 0.3333-0.1924 0.0000 (  4056 PWs)   bands (ev):

    -6.9448  -6.9441  -4.6093  -4.6038  -4.0543  -4.0502   1.1072   1.1629
     1.7068   1.8662   2.4246   2.6372   3.6087   3.6828   4.9550   5.1031
     5.1888   5.3362   6.9932   7.1012   7.2323   7.2700   8.9415   8.9591
     9.4751   9.5053

     occupation numbers 
     1.0000   1.0000   1.0000   1.0000   1.0000   1.0000   1.0000   1.0000
     1.0000   1.0000   1.0000   1.0000   1.0000   1.0000   1.0000   1.0000
     1.0000   1.0000   0.0000   0.0000   0.0000   0.0000   0.0000   0.0000
     0.0000   0.0000

          k = 0.3333-0.1924 0.1247 (  4068 PWs)   bands (ev):

    -6.8475  -6.8449  -5.0935  -5.0890  -3.6097  -3.6032   0.9575   0.9853
     1.4491   1.5460   2.5460   2.6825   4.3408   4.5978   4.8209   5.1068
     5.1189   5.3079   6.9264   6.9906   7.4299   7.5324   8.0382   8.0653
     9.4087   9.4727

     occupation numbers 
     1.0000   1.0000   1.0000   1.0000   1.0000   1.0000   1.0000   1.0000
     1.0000   1.0000   1.0000   1.0000   1.0000   1.0000   1.0000   1.0000
     1.0000   1.0000   0.0000   0.0000   0.0000   0.0000   0.0000   0.0000
     0.0000   0.0000

          k = 0.3333-0.1924 0.2493 (  4069 PWs)   bands (ev):

    -6.5768  -6.5719  -5.6701  -5.6637  -3.2998  -3.2933   0.7927   0.8369
     1.6924   1.8097   2.6950   2.8100   4.0690   4.2272   4.4564   4.5534
     5.8869   5.9396   6.7804   6.8455   7.4370   7.5733   7.9529   8.2970
     9.8932  10.0374

     occupation numbers 
     1.0000   1.0000   1.0000   1.0000   1.0000   1.0000   1.0000   1.0000
     1.0000   1.0000   1.0000   1.0000   1.0000   1.0000   1.0000   1.0000
     0.9999   0.9996   0.0000   0.0000   0.0000   0.0000   0.0000   0.0000
     0.0000   0.0000

          k = 0.3333-0.1924-0.3740 (  4076 PWs)   bands (ev):

    -6.2584  -6.2564  -6.0712  -6.0691  -3.2688  -3.2672   0.8844   0.9261
     2.2139   2.3390   2.5922   2.7096   3.8099   3.8762   4.0952   4.1788
     5.0618   5.1617   7.3527   7.5520   8.0288   8.1322   8.4369   8.6578
    10.5587  10.7166

     occupation numbers 
     1.0000   1.0000   1.0000   1.0000   1.0000   1.0000   1.0000   1.0000
     1.0000   1.0000   1.0000   1.0000   1.0000   1.0000   1.0000   1.0000
     1.0000   1.0000   0.0000   0.0000   0.0000   0.0000   0.0000   0.0000
     0.0000   0.0000

          k = 0.3333 0.0000 0.0000 (  4065 PWs)   bands (ev):

    -7.0870  -7.0863  -4.4317  -4.4211  -4.1654  -4.1565   1.3053   1.4199
     1.5813   1.6903   2.9736   3.1359   4.1422   4.2993   4.4268   4.4978
     4.8978   4.9460   7.6496   7.6881   7.7419   7.7750   8.1050   8.1224
    10.3752  10.3817

     occupation numbers 
     1.0000   1.0000   1.0000   1.0000   1.0000   1.0000   1.0000   1.0000
     1.0000   1.0000   1.0000   1.0000   1.0000   1.0000   1.0000   1.0000
     1.0000   1.0000   0.0000   0.0000   0.0000   0.0000   0.0000   0.0000
     0.0000   0.0000

          k = 0.3333 0.0000 0.1247 (  4075 PWs)   bands (ev):

    -6.9948  -6.9927  -5.0162  -5.0122  -3.6447  -3.6394   1.3193   1.3846
     1.7440   1.7998   2.8759   3.0101   3.6976   3.7924   4.4856   4.6028
     5.5371   5.6030   6.9960   7.0666   7.7896   7.8316   8.4180   8.4506
    10.3524  10.3839

     occupation numbers 
     1.0000   1.0000   1.0000   1.0000   1.0000   1.0000   1.0000   1.0000
     1.0000   1.0000   1.0000   1.0000   1.0000   1.0000   1.0000   1.0000
     1.0000   1.0000   0.0000   0.0000   0.0000   0.0000   0.0000   0.0000
     0.0000   0.0000

          k = 0.3333 0.0000 0.2493 (  4071 PWs)   bands (ev):

    -6.7217  -6.7179  -5.6914  -5.6862  -3.1925  -3.1865   1.3320   1.4257
     1.8412   1.9768   2.7080   2.8244   3.3813   3.5635   4.9503   5.0786
     5.2823   5.4036   6.9381   6.9917   7.7816   7.7929   8.6010   8.6557
    10.5361  10.5572

     occupation numbers 
     1.0000   1.0000   1.0000   1.0000   1.0000   1.0000   1.0000   1.0000
     1.0000   1.0000   1.0000   1.0000   1.0000   1.0000   1.0000   1.0000
     1.0000   1.0000   0.0000   0.0000   0.0000   0.0000   0.0000   0.0000
     0.0000   0.0000

          k = 0.3333 0.0000-0.3740 (  4080 PWs)   bands (ev):

    -6.3250  -6.3219  -6.2273  -6.2242  -3.0213  -3.0197   1.3071   1.4044
     2.1451   2.1594   2.2719   2.3743   3.9602   4.1217   4.5321   4.5652
     5.2693   5.3534   6.8602   6.9393   8.2507   8.2664   8.4562   8.4792
    10.7255  10.7667

     occupation numbers 
     1.0000   1.0000   1.0000   1.0000   1.0000   1.0000   1.0000   1.0000
     1.0000   1.0000   1.0000   1.0000   1.0000   1.0000   1.0000   1.0000
     1.0000   1.0000   0.0000   0.0000   0.0000   0.0000   0.0000   0.0000
     0.0000   0.0000

          k =-0.5000-0.2887 0.0000 (  4082 PWs)   bands (ev):

    -6.5847  -6.5847  -4.9289  -4.9289  -3.9800  -3.9800   1.0813   1.0813
     1.5922   1.5922   2.4325   2.4325   2.6423   2.6423   4.9363   4.9363
     5.2289   5.2289   7.0438   7.0438   7.1641   7.1641   9.0946   9.0946
     9.8953   9.8953

     occupation numbers 
     1.0000   1.0000   1.0000   1.0000   1.0000   1.0000   1.0000   1.0000
     1.0000   1.0000   1.0000   1.0000   1.0000   1.0000   1.0000   1.0000
     1.0000   1.0000   0.0000   0.0000   0.0000   0.0000   0.0000   0.0000
     0.0000   0.0000

          k =-0.5000-0.2887 0.1247 (  4060 PWs)   bands (ev):

    -6.5098  -6.5059  -5.0900  -5.0856  -3.9314  -3.9232   1.0445   1.0842
     1.2516   1.3604   2.3762   2.5365   3.2728   3.4495   4.5701   4.7380
     4.8905   4.9701   7.0339   7.0739   7.6311   7.8550   9.3167   9.3420
     9.4600   9.5719

     occupation numbers 
     1.0000   1.0000   1.0000   1.0000   1.0000   1.0000   1.0000   1.0000
     1.0000   1.0000   1.0000   1.0000   1.0000   1.0000   1.0000   1.0000
     1.0000   1.0000   0.0000   0.0000   0.0000   0.0000   0.0000   0.0000
     0.0000   0.0000

          k =-0.5000-0.2887 0.2493 (  4058 PWs)   bands (ev):

    -6.2961  -6.2894  -5.4475  -5.4396  -3.8405  -3.8332   0.5219   0.5521
     1.7090   1.8182   2.4939   2.6098   3.7162   3.9895   4.1799   4.3654
     4.8569   5.0525   7.3909   7.4808   8.0007   8.0739   8.4165   8.7523
    10.1865  10.4124

     occupation numbers 
     1.0000   1.0000   1.0000   1.0000   1.0000   1.0000   1.0000   1.0000
     1.0000   1.0000   1.0000   1.0000   1.0000   1.0000   1.0000   1.0000
     1.0000   1.0000   0.0000   0.0000   0.0000   0.0000   0.0000   0.0000
     0.0000   0.0000

          k =-0.5000-0.2887-0.3740 (  4044 PWs)   bands (ev):

    -6.0782  -6.0782  -5.7208  -5.7208  -3.7952  -3.7952   0.3341   0.3341
     2.2496   2.2496   2.3833   2.3833   3.6692   3.6692   4.0272   4.0272
     5.8974   5.8974   6.8515   6.8515   7.9319   7.9319   8.8022   8.8022
    10.6592  10.6593

     occupation numbers 
     1.0000   1.0000   1.0000   1.0000   1.0000   1.0000   1.0000   1.0000
     1.0000   1.0000   1.0000   1.0000   1.0000   1.0000   1.0000   1.0000
     0.9999   0.9999   0.0000   0.0000   0.0000   0.0000   0.0000   0.0000
     0.0000   0.0000

          k =-0.5000-0.0962 0.0000 (  4069 PWs)   bands (ev):

    -6.6121  -6.6113  -4.7416  -4.7353  -4.1765  -4.1709   1.1554   1.2273
     1.4362   1.5441   2.5269   2.7255   3.0199   3.1429   4.0707   4.1581
     4.3098   4.3504   7.8840   7.9200   8.2539   8.2675   9.3908   9.4013
     9.9785   9.9964

     occupation numbers 
     1.0000   1.0000   1.0000   1.0000   1.0000   1.0000   1.0000   1.0000
     1.0000   1.0000   1.0000   1.0000   1.0000   1.0000   1.0000   1.0000
     1.0000   1.0000   0.0000   0.0000   0.0000   0.0000   0.0000   0.0000
     0.0000   0.0000

          k =-0.5000-0.0962 0.1247 (  4064 PWs)   bands (ev):

    -6.5276  -6.5238  -5.0455  -5.0400  -3.9458  -3.9369   0.8882   0.9216
     1.3946   1.4953   2.4516   2.5824   3.2548   3.4209   4.1323   4.2622
     4.9765   5.0943   7.4327   7.4975   8.4734   8.5073   8.6255   8.6979
    10.1273  10.1837

     occupation numbers 
     1.0000   1.0000   1.0000   1.0000   1.0000   1.0000   1.0000   1.0000
     1.0000   1.0000   1.0000   1.0000   1.0000   1.0000   1.0000   1.0000
     1.0000   1.0000   0.0000   0.0000   0.0000   0.0000   0.0000   0.0000
     0.0000   0.0000

          k =-0.5000-0.0962 0.2493 (  4057 PWs)   bands (ev):

    -6.2920  -6.2850  -5.4906  -5.4823  -3.7464  -3.7384   0.6211   0.6638
     1.3771   1.4531   2.1855   2.2590   3.5004   3.6275   5.0877   5.2939
     5.6577   5.9132   6.7884   6.8524   7.5584   7.6292   8.6536   8.7663
    10.4396  10.5194

     occupation numbers 
     1.0000   1.0000   1.0000   1.0000   1.0000   1.0000   1.0000   1.0000
     1.0000   1.0000   1.0000   1.0000   1.0000   1.0000   1.0000   1.0000
     1.0000   0.9998   0.0000   0.0000   0.0000   0.0000   0.0000   0.0000
     0.0000   0.0000

          k =-0.5000-0.0962-0.3740 (  4058 PWs)   bands (ev):

    -6.0294  -6.0270  -5.8115  -5.8084  -3.7027  -3.7009   0.6079   0.6356
     1.5638   1.5943   1.7085   1.7920   4.3537   4.4564   4.8594   4.9000
     5.6759   5.7518   6.9917   7.0943   7.6765   7.7403   8.3239   8.3723
    10.9102  10.9455

     occupation numbers 
     1.0000   1.0000   1.0000   1.0000   1.0000   1.0000   1.0000   1.0000
     1.0000   1.0000   1.0000   1.0000   1.0000   1.0000   1.0000   1.0000
     1.0000   1.0000   0.0000   0.0000   0.0000   0.0000   0.0000   0.0000
     0.0000   0.0000

          k =-0.5000 0.0962 0.0000 (  4069 PWs)   bands (ev):

    -6.6121  -6.6113  -4.7417  -4.7354  -4.1765  -4.1708   1.1554   1.2272
     1.4362   1.5442   2.5270   2.7255   3.0199   3.1429   4.0707   4.1581
     4.3099   4.3504   7.8841   7.9201   8.2540   8.2676   9.3907   9.4012
     9.9786   9.9964

     occupation numbers 
     1.0000   1.0000   1.0000   1.0000   1.0000   1.0000   1.0000   1.0000
     1.0000   1.0000   1.0000   1.0000   1.0000   1.0000   1.0000   1.0000
     1.0000   1.0000   0.0000   0.0000   0.0000   0.0000   0.0000   0.0000
     0.0000   0.0000

          k =-0.5000 0.0962 0.1247 (  4064 PWs)   bands (ev):

    -6.5390  -6.5353  -4.9565  -4.9515  -4.0638  -4.0545   1.0849   1.1379
     1.4895   1.5619   2.4741   2.6343   2.9042   3.2718   3.7339   3.9261
     5.2032   5.2659   7.2804   7.3407   8.3687   8.4205   9.4406   9.4659
    10.2328  10.2898

     occupation numbers 
     1.0000   1.0000   1.0000   1.0000   1.0000   1.0000   1.0000   1.0000
     1.0000   1.0000   1.0000   1.0000   1.0000   1.0000   1.0000   1.0000
     1.0000   1.0000   0.0000   0.0000   0.0000   0.0000   0.0000   0.0000
     0.0000   0.0000

          k =-0.5000 0.0962 0.2493 (  4057 PWs)   bands (ev):

    -6.3162  -6.3099  -5.4215  -5.4141  -3.8322  -3.8243   0.8761   0.9494
     1.2778   1.3449   2.1380   2.2130   3.6111   3.8198   4.5456   4.6843
     5.4617   5.5917   7.0491   7.0812   8.2306   8.2966   8.7179   8.7620
    10.6946  10.7408

     occupation numbers 
     1.0000   1.0000   1.0000   1.0000   1.0000   1.0000   1.0000   1.0000
     1.0000   1.0000   1.0000   1.0000   1.0000   1.0000   1.0000   1.0000
     1.0000   1.0000   0.0000   0.0000   0.0000   0.0000   0.0000   0.0000
     0.0000   0.0000

          k =-0.5000 0.0962-0.3740 (  4058 PWs)   bands (ev):

    -6.0295  -6.0271  -5.8115  -5.8084  -3.7027  -3.7009   0.6079   0.6356
     1.5639   1.5943   1.7086   1.7921   4.3537   4.4564   4.8595   4.9000
     5.6759   5.7518   6.9917   7.0942   7.6764   7.7402   8.3239   8.3724
    10.9101  10.9455

     occupation numbers 
     1.0000   1.0000   1.0000   1.0000   1.0000   1.0000   1.0000   1.0000
     1.0000   1.0000   1.0000   1.0000   1.0000   1.0000   1.0000   1.0000
     1.0000   1.0000   0.0000   0.0000   0.0000   0.0000   0.0000   0.0000
     0.0000   0.0000

          k =-0.5000-0.8660 0.0000 (  4082 PWs)   bands (ev):

    -6.5847  -6.5847  -4.9290  -4.9290  -3.9799  -3.9799   1.0813   1.0813
     1.5922   1.5922   2.4325   2.4325   2.6423   2.6423   4.9364   4.9364
     5.2290   5.2290   7.0439   7.0439   7.1642   7.1642   9.0946   9.0946
     9.8952   9.8952

     occupation numbers 
     1.0000   1.0000   1.0000   1.0000   1.0000   1.0000   1.0000   1.0000
     1.0000   1.0000   1.0000   1.0000   1.0000   1.0000   1.0000   1.0000
     1.0000   1.0000   0.0000   0.0000   0.0000   0.0000   0.0000   0.0000
     0.0000   0.0000

          k =-0.5000-0.8660 0.1247 (  4060 PWs)   bands (ev):

    -6.5098  -6.5060  -5.0901  -5.0857  -3.9314  -3.9231   1.0445   1.0842
     1.2515   1.3603   2.3762   2.5365   3.2728   3.4495   4.5702   4.7381
     4.8905   4.9701   7.0340   7.0739   7.6312   7.8551   9.3166   9.3420
     9.4600   9.5719

     occupation numbers 
     1.0000   1.0000   1.0000   1.0000   1.0000   1.0000   1.0000   1.0000
     1.0000   1.0000   1.0000   1.0000   1.0000   1.0000   1.0000   1.0000
     1.0000   1.0000   0.0000   0.0000   0.0000   0.0000   0.0000   0.0000
     0.0000   0.0000

          k =-0.5000-0.8660 0.2493 (  4058 PWs)   bands (ev):

    -6.2961  -6.2895  -5.4476  -5.4397  -3.8404  -3.8332   0.5219   0.5522
     1.7090   1.8183   2.4940   2.6099   3.7162   3.9895   4.1799   4.3654
     4.8569   5.0525   7.3909   7.4808   8.0006   8.0739   8.4165   8.7524
    10.1866  10.4125

     occupation numbers 
     1.0000   1.0000   1.0000   1.0000   1.0000   1.0000   1.0000   1.0000
     1.0000   1.0000   1.0000   1.0000   1.0000   1.0000   1.0000   1.0000
     1.0000   1.0000   0.0000   0.0000   0.0000   0.0000   0.0000   0.0000
     0.0000   0.0000

          k =-0.5000-0.8660-0.3740 (  4044 PWs)   bands (ev):

    -6.0783  -6.0783  -5.7208  -5.7208  -3.7952  -3.7952   0.3341   0.3341
     2.2497   2.2497   2.3834   2.3834   3.6693   3.6693   4.0272   4.0272
     5.8974   5.8974   6.8515   6.8515   7.9319   7.9319   8.8022   8.8022
    10.6593  10.6594

     occupation numbers 
     1.0000   1.0000   1.0000   1.0000   1.0000   1.0000   1.0000   1.0000
     1.0000   1.0000   1.0000   1.0000   1.0000   1.0000   1.0000   1.0000
     0.9999   0.9999   0.0000   0.0000   0.0000   0.0000   0.0000   0.0000
     0.0000   0.0000

          k = 0.0000-0.1924 0.1247 (  4083 PWs)   bands (ev):

    -7.3247  -7.3233  -5.1000  -5.0968  -3.4099  -3.4071   1.8957   1.9827
     2.6417   2.8343   2.9201   3.2797   4.3691   4.4177   4.5106   4.6938
     4.9439   5.1348   7.1290   7.2261   7.5468   7.6718   7.9486   8.0457
    10.7990  10.8407

     occupation numbers 
     1.0000   1.0000   1.0000   1.0000   1.0000   1.0000   1.0000   1.0000
     1.0000   1.0000   1.0000   1.0000   1.0000   1.0000   1.0000   1.0000
     1.0000   1.0000   0.0000   0.0000   0.0000   0.0000   0.0000   0.0000
     0.0000   0.0000

          k = 0.0000-0.1924 0.2493 (  4091 PWs)   bands (ev):

    -7.0327  -7.0301  -5.8915  -5.8876  -2.7232  -2.7188   1.9034   1.9713
     2.7613   2.9230   3.1838   3.4293   3.8369   4.0618   4.2825   4.3720
     4.7605   4.9150   7.1575   7.1982   7.8090   7.9026   7.9718   8.0377
    10.7352  10.7560

     occupation numbers 
     1.0000   1.0000   1.0000   1.0000   1.0000   1.0000   1.0000   1.0000
     1.0000   1.0000   1.0000   1.0000   1.0000   1.0000   1.0000   1.0000
     1.0000   1.0000   0.0000   0.0000   0.0000   0.0000   0.0000   0.0000
     0.0000   0.0000

          k = 0.0000-0.3849 0.1247 (  4068 PWs)   bands (ev):

    -6.8653  -6.8629  -4.9282  -4.9243  -3.8732  -3.8669   1.3898   1.5024
     1.9029   2.0216   2.6359   2.8715   2.8898   3.1153   4.4752   4.7296
     4.9170   5.0815   7.1153   7.2119   7.8259   8.0623   9.3509   9.3649
    10.0674  10.1837

     occupation numbers 
     1.0000   1.0000   1.0000   1.0000   1.0000   1.0000   1.0000   1.0000
     1.0000   1.0000   1.0000   1.0000   1.0000   1.0000   1.0000   1.0000
     1.0000   1.0000   0.0000   0.0000   0.0000   0.0000   0.0000   0.0000
     0.0000   0.0000

          k = 0.0000-0.3849 0.2493 (  4069 PWs)   bands (ev):

    -6.6155  -6.6114  -5.5559  -5.5506  -3.4952  -3.4889   1.2684   1.3425
     2.0462   2.2083   2.6549   2.8025   3.3875   3.7488   4.0075   4.1826
     4.5166   4.7423   7.5334   7.5866   8.3825   8.5428   9.0227   9.0381
    10.6993  10.8149

     occupation numbers 
     1.0000   1.0000   1.0000   1.0000   1.0000   1.0000   1.0000   1.0000
     1.0000   1.0000   1.0000   1.0000   1.0000   1.0000   1.0000   1.0000
     1.0000   1.0000   0.0000   0.0000   0.0000   0.0000   0.0000   0.0000
     0.0000   0.0000

          k =-0.1667-0.0962 0.1247 (  4083 PWs)   bands (ev):

    -7.3220  -7.3206  -5.1281  -5.1248  -3.3511  -3.3484   1.9303   2.0090
     2.0995   2.2291   3.0146   3.2002   4.7789   4.9107   5.0944   5.2903
     5.4818   5.5777   6.7289   6.7541   6.9184   7.0565   7.5617   7.6230
    10.0932  10.1018

     occupation numbers 
     1.0000   1.0000   1.0000   1.0000   1.0000   1.0000   1.0000   1.0000
     1.0000   1.0000   1.0000   1.0000   1.0000   1.0000   1.0000   1.0000
     1.0000   1.0000   0.0000   0.0000   0.0000   0.0000   0.0000   0.0000
     0.0000   0.0000

          k =-0.1667-0.0962 0.2493 (  4091 PWs)   bands (ev):

    -7.0269  -7.0241  -5.9090  -5.9050  -2.6703  -2.6658   1.7788   1.8691
     2.2779   2.4486   3.1177   3.2990   4.5657   4.6425   4.7784   4.8876
     5.0611   5.1650   6.7879   6.8960   7.1304   7.2826   7.8356   7.8497
    10.1180  10.1454

     occupation numbers 
     1.0000   1.0000   1.0000   1.0000   1.0000   1.0000   1.0000   1.0000
     1.0000   1.0000   1.0000   1.0000   1.0000   1.0000   1.0000   1.0000
     1.0000   1.0000   0.0000   0.0000   0.0000   0.0000   0.0000   0.0000
     0.0000   0.0000

          k =-0.1667-0.2887 0.1247 (  4075 PWs)   bands (ev):

    -6.9948  -6.9927  -5.0162  -5.0121  -3.6448  -3.6394   1.3193   1.3846
     1.7440   1.7998   2.8758   3.0101   3.6975   3.7923   4.4856   4.6029
     5.5371   5.6030   6.9960   7.0667   7.7896   7.8315   8.4179   8.4505
    10.3523  10.3839

     occupation numbers 
     1.0000   1.0000   1.0000   1.0000   1.0000   1.0000   1.0000   1.0000
     1.0000   1.0000   1.0000   1.0000   1.0000   1.0000   1.0000   1.0000
     1.0000   1.0000   0.0000   0.0000   0.0000   0.0000   0.0000   0.0000
     0.0000   0.0000

          k =-0.1667-0.2887 0.2493 (  4071 PWs)   bands (ev):

    -6.7217  -6.7179  -5.6913  -5.6861  -3.1925  -3.1865   1.3320   1.4257
     1.8412   1.9769   2.7080   2.8244   3.3813   3.5635   4.9503   5.0787
     5.2823   5.4036   6.9381   6.9916   7.7816   7.7929   8.6009   8.6556
    10.5360  10.5572

     occupation numbers 
     1.0000   1.0000   1.0000   1.0000   1.0000   1.0000   1.0000   1.0000
     1.0000   1.0000   1.0000   1.0000   1.0000   1.0000   1.0000   1.0000
     1.0000   1.0000   0.0000   0.0000   0.0000   0.0000   0.0000   0.0000
     0.0000   0.0000

          k =-0.1667-0.4811 0.1247 (  4064 PWs)   bands (ev):

    -6.5390  -6.5353  -4.9565  -4.9515  -4.0638  -4.0545   1.0849   1.1379
     1.4895   1.5619   2.4740   2.6343   2.9042   3.2718   3.7339   3.9261
     5.2032   5.2659   7.2804   7.3407   8.3687   8.4205   9.4406   9.4659
    10.2327  10.2898

     occupation numbers 
     1.0000   1.0000   1.0000   1.0000   1.0000   1.0000   1.0000   1.0000
     1.0000   1.0000   1.0000   1.0000   1.0000   1.0000   1.0000   1.0000
     1.0000   1.0000   0.0000   0.0000   0.0000   0.0000   0.0000   0.0000
     0.0000   0.0000

          k =-0.1667-0.4811 0.2493 (  4057 PWs)   bands (ev):

    -6.3162  -6.3099  -5.4215  -5.4141  -3.8322  -3.8243   0.8761   0.9494
     1.2778   1.3449   2.1380   2.2129   3.6111   3.8198   4.5455   4.6843
     5.4617   5.5917   7.0491   7.0812   8.2306   8.2966   8.7179   8.7621
    10.6946  10.7407

     occupation numbers 
     1.0000   1.0000   1.0000   1.0000   1.0000   1.0000   1.0000   1.0000
     1.0000   1.0000   1.0000   1.0000   1.0000   1.0000   1.0000   1.0000
     1.0000   1.0000   0.0000   0.0000   0.0000   0.0000   0.0000   0.0000
     0.0000   0.0000

          k =-0.1667 0.4811 0.1247 (  4064 PWs)   bands (ev):

    -6.5276  -6.5238  -5.0455  -5.0401  -3.9458  -3.9368   0.8882   0.9216
     1.3946   1.4953   2.4516   2.5824   3.2548   3.4209   4.1324   4.2622
     4.9765   5.0943   7.4328   7.4976   8.4734   8.5073   8.6255   8.6979
    10.1273  10.1837

     occupation numbers 
     1.0000   1.0000   1.0000   1.0000   1.0000   1.0000   1.0000   1.0000
     1.0000   1.0000   1.0000   1.0000   1.0000   1.0000   1.0000   1.0000
     1.0000   1.0000   0.0000   0.0000   0.0000   0.0000   0.0000   0.0000
     0.0000   0.0000

          k =-0.1667 0.4811 0.2493 (  4057 PWs)   bands (ev):

    -6.2920  -6.2850  -5.4907  -5.4823  -3.7463  -3.7384   0.6212   0.6638
     1.3771   1.4531   2.1855   2.2590   3.5004   3.6275   5.0877   5.2940
     5.6577   5.9132   6.7884   6.8524   7.5584   7.6292   8.6536   8.7663
    10.4396  10.5194

     occupation numbers 
     1.0000   1.0000   1.0000   1.0000   1.0000   1.0000   1.0000   1.0000
     1.0000   1.0000   1.0000   1.0000   1.0000   1.0000   1.0000   1.0000
     1.0000   0.9998   0.0000   0.0000   0.0000   0.0000   0.0000   0.0000
     0.0000   0.0000

          k =-0.1667 0.2887 0.1247 (  4075 PWs)   bands (ev):

    -6.9948  -6.9927  -5.0162  -5.0121  -3.6447  -3.6394   1.3193   1.3847
     1.7440   1.7998   2.8759   3.0101   3.6975   3.7924   4.4856   4.6029
     5.5371   5.6030   6.9961   7.0667   7.7897   7.8317   8.4179   8.4505
    10.3522  10.3837

     occupation numbers 
     1.0000   1.0000   1.0000   1.0000   1.0000   1.0000   1.0000   1.0000
     1.0000   1.0000   1.0000   1.0000   1.0000   1.0000   1.0000   1.0000
     1.0000   1.0000   0.0000   0.0000   0.0000   0.0000   0.0000   0.0000
     0.0000   0.0000

          k =-0.1667 0.2887 0.2493 (  4071 PWs)   bands (ev):

    -6.7218  -6.7179  -5.6914  -5.6862  -3.1925  -3.1865   1.3320   1.4257
     1.8412   1.9768   2.7080   2.8244   3.3813   3.5636   4.9503   5.0787
     5.2823   5.4037   6.9381   6.9917   7.7816   7.7929   8.6009   8.6556
    10.5361  10.5572

     occupation numbers 
     1.0000   1.0000   1.0000   1.0000   1.0000   1.0000   1.0000   1.0000
     1.0000   1.0000   1.0000   1.0000   1.0000   1.0000   1.0000   1.0000
     1.0000   1.0000   0.0000   0.0000   0.0000   0.0000   0.0000   0.0000
     0.0000   0.0000

          k =-0.1667 0.0962 0.1247 (  4083 PWs)   bands (ev):

    -7.3247  -7.3233  -5.1000  -5.0968  -3.4099  -3.4071   1.8957   1.9827
     2.6417   2.8344   2.9201   3.2797   4.3691   4.4177   4.5107   4.6938
     4.9439   5.1348   7.1290   7.2261   7.5468   7.6717   7.9486   8.0457
    10.7992  10.8407

     occupation numbers 
     1.0000   1.0000   1.0000   1.0000   1.0000   1.0000   1.0000   1.0000
     1.0000   1.0000   1.0000   1.0000   1.0000   1.0000   1.0000   1.0000
     1.0000   1.0000   0.0000   0.0000   0.0000   0.0000   0.0000   0.0000
     0.0000   0.0000

          k =-0.1667 0.0962 0.2493 (  4091 PWs)   bands (ev):

    -7.0327  -7.0301  -5.8915  -5.8876  -2.7232  -2.7188   1.9034   1.9713
     2.7613   2.9230   3.1837   3.4293   3.8369   4.0619   4.2825   4.3720
     4.7605   4.9150   7.1575   7.1982   7.8090   7.9026   7.9718   8.0376
    10.7353  10.7563

     occupation numbers 
     1.0000   1.0000   1.0000   1.0000   1.0000   1.0000   1.0000   1.0000
     1.0000   1.0000   1.0000   1.0000   1.0000   1.0000   1.0000   1.0000
     1.0000   1.0000   0.0000   0.0000   0.0000   0.0000   0.0000   0.0000
     0.0000   0.0000

          k =-0.3333-0.1925 0.1247 (  4068 PWs)   bands (ev):

    -6.8475  -6.8449  -5.0935  -5.0889  -3.6097  -3.6033   0.9575   0.9853
     1.4492   1.5460   2.5459   2.6824   4.3407   4.5977   4.8209   5.1067
     5.1188   5.3079   6.9263   6.9906   7.4299   7.5323   8.0382   8.0653
     9.4087   9.4727

     occupation numbers 
     1.0000   1.0000   1.0000   1.0000   1.0000   1.0000   1.0000   1.0000
     1.0000   1.0000   1.0000   1.0000   1.0000   1.0000   1.0000   1.0000
     1.0000   1.0000   0.0000   0.0000   0.0000   0.0000   0.0000   0.0000
     0.0000   0.0000

          k =-0.3333-0.1925 0.2493 (  4069 PWs)   bands (ev):

    -6.5768  -6.5719  -5.6700  -5.6636  -3.2998  -3.2933   0.7927   0.8369
     1.6924   1.8097   2.6950   2.8099   4.0689   4.2272   4.4564   4.5533
     5.8869   5.9396   6.7804   6.8455   7.4371   7.5733   7.9528   8.2970
     9.8932  10.0374

     occupation numbers 
     1.0000   1.0000   1.0000   1.0000   1.0000   1.0000   1.0000   1.0000
     1.0000   1.0000   1.0000   1.0000   1.0000   1.0000   1.0000   1.0000
     0.9999   0.9996   0.0000   0.0000   0.0000   0.0000   0.0000   0.0000
     0.0000   0.0000

          k =-0.3333-0.3849 0.1247 (  4064 PWs)   bands (ev):

    -6.5276  -6.5238  -5.0455  -5.0400  -3.9458  -3.9369   0.8882   0.9216
     1.3946   1.4953   2.4516   2.5824   3.2547   3.4209   4.1324   4.2622
     4.9765   5.0943   7.4327   7.4975   8.4734   8.5073   8.6255   8.6979
    10.1273  10.1837

     occupation numbers 
     1.0000   1.0000   1.0000   1.0000   1.0000   1.0000   1.0000   1.0000
     1.0000   1.0000   1.0000   1.0000   1.0000   1.0000   1.0000   1.0000
     1.0000   1.0000   0.0000   0.0000   0.0000   0.0000   0.0000   0.0000
     0.0000   0.0000

          k =-0.3333-0.3849 0.2493 (  4057 PWs)   bands (ev):

    -6.2920  -6.2850  -5.4906  -5.4823  -3.7464  -3.7384   0.6211   0.6638
     1.3771   1.4531   2.1855   2.2590   3.5003   3.6275   5.0877   5.2940
     5.6577   5.9132   6.7884   6.8524   7.5584   7.6292   8.6536   8.7663
    10.4396  10.5194

     occupation numbers 
     1.0000   1.0000   1.0000   1.0000   1.0000   1.0000   1.0000   1.0000
     1.0000   1.0000   1.0000   1.0000   1.0000   1.0000   1.0000   1.0000
     1.0000   0.9998   0.0000   0.0000   0.0000   0.0000   0.0000   0.0000
     0.0000   0.0000

          k =-0.3333-0.5774 0.1247 (  4083 PWs)   bands (ev):

    -6.3389  -6.3342  -4.9544  -4.9506  -4.2251  -4.2148   1.0025   1.0183
     1.3915   1.5575   2.2074   2.3157   2.9287   3.1124   3.9521   3.9944
     4.3360   4.5288   8.3514   8.5070   8.8270   8.9520   8.9590   8.9913
    11.1896  11.2398

     occupation numbers 
     1.0000   1.0000   1.0000   1.0000   1.0000   1.0000   1.0000   1.0000
     1.0000   1.0000   1.0000   1.0000   1.0000   1.0000   1.0000   1.0000
     1.0000   1.0000   0.0000   0.0000   0.0000   0.0000   0.0000   0.0000
     0.0000   0.0000

          k =-0.3333-0.5774 0.2493 (  4077 PWs)   bands (ev):

    -6.1235  -6.1148  -5.3831  -5.3738  -3.9853  -3.9762   0.8153   0.8706
     0.9850   1.0448   1.4678   1.5798   3.9811   4.1138   5.0562   5.2090
     5.4057   5.6950   7.2082   7.3216   8.0430   8.1293   8.2462   8.2805
    11.8344  11.8456

     occupation numbers 
     1.0000   1.0000   1.0000   1.0000   1.0000   1.0000   1.0000   1.0000
     1.0000   1.0000   1.0000   1.0000   1.0000   1.0000   1.0000   1.0000
     1.0000   1.0000   0.0000   0.0000   0.0000   0.0000   0.0000   0.0000
     0.0000   0.0000

          k =-0.3333 0.3849 0.1247 (  4064 PWs)   bands (ev):

    -6.5390  -6.5354  -4.9565  -4.9515  -4.0638  -4.0545   1.0849   1.1380
     1.4895   1.5619   2.4741   2.6343   2.9042   3.2719   3.7339   3.9261
     5.2032   5.2659   7.2804   7.3407   8.3688   8.4206   9.4406   9.4659
    10.2328  10.2898

     occupation numbers 
     1.0000   1.0000   1.0000   1.0000   1.0000   1.0000   1.0000   1.0000
     1.0000   1.0000   1.0000   1.0000   1.0000   1.0000   1.0000   1.0000
     1.0000   1.0000   0.0000   0.0000   0.0000   0.0000   0.0000   0.0000
     0.0000   0.0000

          k =-0.3333 0.3849 0.2493 (  4057 PWs)   bands (ev):

    -6.3162  -6.3099  -5.4215  -5.4141  -3.8322  -3.8243   0.8761   0.9494
     1.2778   1.3449   2.1380   2.2129   3.6111   3.8198   4.5456   4.6843
     5.4617   5.5917   7.0490   7.0812   8.2306   8.2967   8.7179   8.7621
    10.6946  10.7408

     occupation numbers 
     1.0000   1.0000   1.0000   1.0000   1.0000   1.0000   1.0000   1.0000
     1.0000   1.0000   1.0000   1.0000   1.0000   1.0000   1.0000   1.0000
     1.0000   1.0000   0.0000   0.0000   0.0000   0.0000   0.0000   0.0000
     0.0000   0.0000

          k =-0.3333 0.1924 0.1247 (  4068 PWs)   bands (ev):

    -6.8653  -6.8629  -4.9283  -4.9243  -3.8732  -3.8669   1.3898   1.5024
     1.9029   2.0216   2.6360   2.8716   2.8899   3.1153   4.4752   4.7296
     4.9170   5.0816   7.1154   7.2119   7.8260   8.0623   9.3508   9.3649
    10.0674  10.1837

     occupation numbers 
     1.0000   1.0000   1.0000   1.0000   1.0000   1.0000   1.0000   1.0000
     1.0000   1.0000   1.0000   1.0000   1.0000   1.0000   1.0000   1.0000
     1.0000   1.0000   0.0000   0.0000   0.0000   0.0000   0.0000   0.0000
     0.0000   0.0000

          k =-0.3333 0.1924 0.2493 (  4069 PWs)   bands (ev):

    -6.6155  -6.6114  -5.5559  -5.5506  -3.4952  -3.4889   1.2684   1.3425
     2.0462   2.2083   2.6550   2.8026   3.3875   3.7488   4.0075   4.1826
     4.5166   4.7423   7.5334   7.5866   8.3825   8.5428   9.0227   9.0381
    10.6992  10.8146

     occupation numbers 
     1.0000   1.0000   1.0000   1.0000   1.0000   1.0000   1.0000   1.0000
     1.0000   1.0000   1.0000   1.0000   1.0000   1.0000   1.0000   1.0000
     1.0000   1.0000   0.0000   0.0000   0.0000   0.0000   0.0000   0.0000
     0.0000   0.0000

          k =-0.3333-0.0000 0.1247 (  4075 PWs)   bands (ev):

    -6.9948  -6.9927  -5.0162  -5.0121  -3.6448  -3.6394   1.3193   1.3846
     1.7440   1.7998   2.8759   3.0101   3.6975   3.7923   4.4856   4.6029
     5.5371   5.6030   6.9960   7.0667   7.7896   7.8316   8.4179   8.4505
    10.3522  10.3841

     occupation numbers 
     1.0000   1.0000   1.0000   1.0000   1.0000   1.0000   1.0000   1.0000
     1.0000   1.0000   1.0000   1.0000   1.0000   1.0000   1.0000   1.0000
     1.0000   1.0000   0.0000   0.0000   0.0000   0.0000   0.0000   0.0000
     0.0000   0.0000

          k =-0.3333-0.0000 0.2493 (  4071 PWs)   bands (ev):

    -6.7217  -6.7179  -5.6913  -5.6861  -3.1925  -3.1865   1.3320   1.4257
     1.8412   1.9769   2.7080   2.8244   3.3813   3.5636   4.9503   5.0787
     5.2823   5.4036   6.9381   6.9917   7.7816   7.7929   8.6009   8.6556
    10.5361  10.5572

     occupation numbers 
     1.0000   1.0000   1.0000   1.0000   1.0000   1.0000   1.0000   1.0000
     1.0000   1.0000   1.0000   1.0000   1.0000   1.0000   1.0000   1.0000
     1.0000   1.0000   0.0000   0.0000   0.0000   0.0000   0.0000   0.0000
     0.0000   0.0000

          k = 0.5000 0.0962 0.1247 (  4064 PWs)   bands (ev):

    -6.5390  -6.5353  -4.9565  -4.9515  -4.0638  -4.0545   1.0849   1.1379
     1.4895   1.5619   2.4740   2.6343   2.9042   3.2718   3.7339   3.9261
     5.2032   5.2659   7.2804   7.3407   8.3687   8.4205   9.4407   9.4660
    10.2328  10.2898

     occupation numbers 
     1.0000   1.0000   1.0000   1.0000   1.0000   1.0000   1.0000   1.0000
     1.0000   1.0000   1.0000   1.0000   1.0000   1.0000   1.0000   1.0000
     1.0000   1.0000   0.0000   0.0000   0.0000   0.0000   0.0000   0.0000
     0.0000   0.0000

          k = 0.5000 0.0962 0.2493 (  4057 PWs)   bands (ev):

    -6.3161  -6.3099  -5.4215  -5.4141  -3.8322  -3.8243   0.8761   0.9494
     1.2778   1.3449   2.1380   2.2129   3.6111   3.8198   4.5455   4.6842
     5.4617   5.5916   7.0490   7.0812   8.2306   8.2966   8.7180   8.7621
    10.6946  10.7408

     occupation numbers 
     1.0000   1.0000   1.0000   1.0000   1.0000   1.0000   1.0000   1.0000
     1.0000   1.0000   1.0000   1.0000   1.0000   1.0000   1.0000   1.0000
     1.0000   1.0000   0.0000   0.0000   0.0000   0.0000   0.0000   0.0000
     0.0000   0.0000

          k = 0.5000-0.0962 0.1247 (  4064 PWs)   bands (ev):

    -6.5276  -6.5238  -5.0455  -5.0401  -3.9458  -3.9368   0.8883   0.9216
     1.3946   1.4952   2.4517   2.5825   3.2548   3.4209   4.1324   4.2622
     4.9765   5.0943   7.4328   7.4976   8.4734   8.5073   8.6255   8.6979
    10.1273  10.1838

     occupation numbers 
     1.0000   1.0000   1.0000   1.0000   1.0000   1.0000   1.0000   1.0000
     1.0000   1.0000   1.0000   1.0000   1.0000   1.0000   1.0000   1.0000
     1.0000   1.0000   0.0000   0.0000   0.0000   0.0000   0.0000   0.0000
     0.0000   0.0000

          k = 0.5000-0.0962 0.2493 (  4057 PWs)   bands (ev):

    -6.2920  -6.2850  -5.4907  -5.4823  -3.7463  -3.7384   0.6212   0.6638
     1.3771   1.4531   2.1855   2.2591   3.5004   3.6275   5.0877   5.2940
     5.6577   5.9132   6.7884   6.8524   7.5584   7.6292   8.6537   8.7664
    10.4396  10.5194

     occupation numbers 
     1.0000   1.0000   1.0000   1.0000   1.0000   1.0000   1.0000   1.0000
     1.0000   1.0000   1.0000   1.0000   1.0000   1.0000   1.0000   1.0000
     1.0000   0.9998   0.0000   0.0000   0.0000   0.0000   0.0000   0.0000
     0.0000   0.0000

     the Fermi energy is     6.2604 ev

!    total energy              =     -85.64265643 Ry
     estimated scf accuracy    <          5.2E-09 Ry
     smearing contrib. (-TS)   =      -0.00009299 Ry
     internal energy E=F+TS    =     -85.64256344 Ry

     The total energy is F=E-TS. E is the sum of the following terms:
     one-electron contribution =      10.41001708 Ry
     hartree contribution      =       3.32298506 Ry
     xc contribution           =     -49.71720771 Ry
     ewald contribution        =     -49.65835788 Ry

     convergence has been achieved in   8 iterations


     Computing stress (Cartesian axis) and pressure

          total   stress  (Ry/bohr**3)                   (kbar)     P=       28.66
   0.00016946   0.00000002   0.00000003           24.93        0.00        0.00
   0.00000002   0.00016946   0.00000000            0.00       24.93        0.00
   0.00000003   0.00000000   0.00024549            0.00        0.00       36.11

     kinetic stress (kbar)   2367.57      0.00     -0.00
                                0.00   2367.56     -0.00
                               -0.00     -0.00   2237.22

     local   stress (kbar)    177.07     -0.02     -0.04
                               -0.02    177.08     -0.01
                               -0.04     -0.01   -571.59

     nonloc. stress (kbar)   2395.04      0.00      0.00
                                0.00   2395.04      0.00
                                0.00      0.00   2385.54

     hartree stress (kbar)    179.35      0.00      0.01
                                0.00    179.35      0.00
                                0.01      0.00    358.56

     exc-cor stress (kbar)   7065.48      0.00      0.00
                                0.00   7065.48      0.00
                                0.00      0.00   7067.98

     corecor stress (kbar)  -8350.14     -0.00     -0.00
                               -0.00  -8350.14     -0.00
                               -0.00     -0.00  -8341.79

     ewald   stress (kbar)  -3809.44      0.01      0.04
                                0.01  -3809.45      0.01
                                0.04      0.01  -3099.81

     hubbard stress (kbar)      0.00      0.00      0.00
                                0.00      0.00      0.00
                                0.00      0.00      0.00

     DFT-D   stress (kbar)      0.00      0.00      0.00
                                0.00      0.00      0.00
                                0.00      0.00      0.00

     XDM     stress (kbar)      0.00      0.00      0.00
                                0.00      0.00      0.00
                                0.00      0.00      0.00

     dft-nl  stress (kbar)      0.00      0.00      0.00
                                0.00      0.00      0.00
                                0.00      0.00      0.00

     TS-vdW  stress (kbar)      0.00      0.00      0.00
                                0.00      0.00      0.00
                                0.00      0.00      0.00

     MDB     stress (kbar)      0.00      0.00      0.00
                                0.00      0.00      0.00
                                0.00      0.00      0.00

     3D-RISM stress (kbar)      0.00      0.00      0.00
                                0.00      0.00      0.00
                                0.00      0.00      0.00


     Writing all to output data dir /home/user/workspace/qe_runs/strain_trans_m0050/out/tetrans_m0050.save/ :
     XML data file, charge density, pseudopotentials, collected wavefunctions

     init_run     :      5.09s CPU      5.49s WALL (       1 calls)
     electrons    :    172.08s CPU    177.80s WALL (       1 calls)
     stress       :      8.38s CPU      8.67s WALL (       1 calls)

     Called by init_run:
     wfcinit      :      4.23s CPU      4.38s WALL (       1 calls)
     wfcinit:atom :      0.05s CPU      0.05s WALL (     112 calls)
     wfcinit:wfcr :      4.02s CPU      4.17s WALL (     112 calls)
     potinit      :      0.16s CPU      0.18s WALL (       1 calls)
     hinit0       :      0.42s CPU      0.43s WALL (       1 calls)

     Called by electrons:
     c_bands      :    148.44s CPU    151.65s WALL (       8 calls)
     sum_band     :     21.32s CPU     23.05s WALL (       8 calls)
     v_of_rho     :      0.20s CPU      0.20s WALL (       9 calls)
     v_h          :      0.01s CPU      0.01s WALL (       9 calls)
     v_xc         :      0.21s CPU      0.22s WALL (      10 calls)
     newd         :      2.24s CPU      3.19s WALL (       9 calls)
     mix_rho      :      0.10s CPU      0.11s WALL (       8 calls)

     Called by c_bands:
     init_us_2    :      1.87s CPU      1.87s WALL (    2016 calls)
     cegterg      :    125.50s CPU    128.66s WALL (     896 calls)

     Called by sum_band:
     sum_band:wei :      0.02s CPU      0.02s WALL (       8 calls)
     sum_band:loo :     19.18s CPU     19.66s WALL (       8 calls)
     sum_band:buf :      0.32s CPU      0.32s WALL (     896 calls)
     sum_band:ini :      0.80s CPU      0.80s WALL (     896 calls)
     sum_band:cal :      1.77s CPU      1.83s WALL (     896 calls)
     sum_band:bec :      2.12s CPU      2.15s WALL (     896 calls)
     addusdens    :      2.05s CPU      3.30s WALL (       8 calls)
                                        0.00s GPU  (       8 calls)
     addusd:skk   :      0.00s CPU      0.00s WALL (       8 calls)
                                        0.00s GPU  (       8 calls)

     Called by *egterg:
     cdiaghg      :      3.78s CPU      3.82s WALL (    5177 calls)
     cegterg:over :      5.70s CPU      5.76s WALL (    4281 calls)
     cegterg:upda :      3.33s CPU      3.36s WALL (    4281 calls)
     cegterg:last :      6.51s CPU      6.52s WALL (    2545 calls)
     h_psi        :     99.79s CPU    102.90s WALL (    5289 calls)
     s_psi        :      6.03s CPU      6.07s WALL (    5289 calls)
     g_psi        :      1.18s CPU      1.18s WALL (    4281 calls)

     Called by h_psi:
     h_psi:calbec :      6.94s CPU      7.13s WALL (    5289 calls)
     vloc_psi     :     86.26s CPU     89.07s WALL (    5289 calls)
                                        0.00s GPU  (    5289 calls)
     add_vuspsi   :      5.96s CPU      6.05s WALL (    5289 calls)

     General routines
     calbec       :     11.55s CPU     11.81s WALL (    7641 calls)
     fft          :      0.32s CPU      0.33s WALL (     228 calls)
     ffts         :      0.16s CPU      0.16s WALL (      68 calls)
     fftw         :     86.50s CPU     89.26s WALL (  370640 calls)
     interpolate  :      0.17s CPU      0.17s WALL (      36 calls)

     Parallel routines

     PWSCF        :   3m 5.79s CPU   3m12.47s WALL


   This run was terminated on:   7:53:12  20Aug2026            

=------------------------------------------------------------------------------=
   JOB DONE.
=------------------------------------------------------------------------------=
