
     Program PWSCF v.7.5 starts on 20Aug2026 at  7:59:56 

     This program is part of the open-source Quantum ESPRESSO suite
     for quantum simulation of materials; please cite
         "P. Giannozzi et al., J. Phys.:Condens. Matter 21 395502 (2009);
         "P. Giannozzi et al., J. Phys.:Condens. Matter 29 465901 (2017);
         "P. Giannozzi et al., J. Chem. Phys. 152 154105 (2020);
          URL http://www.quantum-espresso.org", 
     in publications or presentations arising from this work. More details at
     http://www.quantum-espresso.org/quote

     Parallel version (MPI & OpenMP), running on       2 processor cores
     Number of MPI processes:                 2
     Threads/MPI process:                     1

     MPI processes distributed on     1 nodes
     1317 MiB available memory on the printing compute node when the environment starts

     Reading input from strain_trans_p0025/bands.in

     Current dimensions of program PWSCF are:
     Max number of different atomic species (ntypx) = 10
     Max number of k-points (npk) =  40000
     Max angular momentum in pseudopotentials (lmaxx) =  4
     file Te.rel-pbe-n-rrkjus_psl.1.0.0.UPF: wavefunction(s)  5S renormalized

     Atomic positions and unit cell read from directory:
     /home/user/workspace/qe_runs/strain_trans_p0025/out/tetrans_p0025.save/


     R & G space division:  proc/nbgrp/npool/nimage =       2
     Subspace diagonalization in iterative solution of the eigenvalue problem:
     a serial algorithm will be used


     Parallelization info
     --------------------
     sticks:   dense  smooth     PW     G-vecs:    dense   smooth      PW
     Min         741     483    150                30349    16492    2713
     Max         742     484    151                30354    16493    2714
     Sum        1483     967    301                60703    32985    5427

     Using Slab Decomposition



     bravais-lattice index     =            0
     lattice parameter (alat)  =       8.4439  a.u.
     unit-cell volume          =     691.8271 (a.u.)^3
     number of atoms/cell      =            3
     number of atomic types    =            1
     number of electrons       =        18.00
     number of Kohn-Sham states=           28
     kinetic-energy cutoff     =      50.0000  Ry
     charge density cutoff     =     300.0000  Ry
     Exchange-correlation= PBE
                           (   1   4   3   4   0   0   0)
     Non magnetic calculation with spin-orbit


     celldm(1)=   8.443863  celldm(2)=   0.000000  celldm(3)=   0.000000
     celldm(4)=   0.000000  celldm(5)=   0.000000  celldm(6)=   0.000000

     crystal axes: (cart. coord. in units of alat)
               a(1) = (   1.000000   0.000000   0.000000 )  
               a(2) = (  -0.500011   0.866034   0.000000 )  
               a(3) = (   0.000000   0.000000   1.326903 )  

     reciprocal axes: (cart. coord. in units 2 pi/alat)
               b(1) = (  1.000000  0.577358 -0.000000 )  
               b(2) = (  0.000000  1.154689  0.000000 )  
               b(3) = (  0.000000 -0.000000  0.753635 )  


     PseudoPot. # 1 for Te read from file:
     /home/user/workspace/qe_runs/pseudo/Te.rel-pbe-n-rrkjus_psl.1.0.0.UPF
     MD5 check sum: 7fd30b6833abd190471e4dcc2367351b
     Pseudo is Ultrasoft + core correction, Zval =  6.0
     Generated using &quot;atomic&quot; code by A. Dal Corso  v.6.3
     Using radial grid of 1245 points, 10 beta functions with: 
                l(1) =   0
                l(2) =   0
                l(3) =   1
                l(4) =   1
                l(5) =   1
                l(6) =   1
                l(7) =   2
                l(8) =   2
                l(9) =   2
               l(10) =   2
     Q(r) pseudized with 0 coefficients 


     atomic species   valence    mass     pseudopotential
     Te                6.00   127.60000     Te( 1.00)

     No symmetry found


                                    s                        frac. trans.

      isym =  1     identity                                     

 cryst.   s( 1) = (     1          0          0      )
                  (     0          1          0      )
                  (     0          0          1      )

 cart.    s( 1) = (  1.0000000 -0.0000000  0.0000000 )
                  (  0.0000000  1.0000000  0.0000000 )
                  (  0.0000000  0.0000000  1.0000000 )


   Cartesian axes

     site n.     atom                  positions (alat units)
         1        Te     tau(   1) = (   0.2636000   0.0000000   0.4423009  )
         2        Te     tau(   2) = (  -0.1318029   0.2282865   0.8846019  )
         3        Te     tau(   3) = (  -0.1317971  -0.2282865   0.0000000  )

   Crystallographic axes

     site n.     atom                  positions (cryst. coord.)
         1        Te     tau(   1) = (  0.2636000  0.0000000  0.3333333  )
         2        Te     tau(   2) = (  0.0000000  0.2636000  0.6666667  )
         3        Te     tau(   3) = ( -0.2636000 -0.2636000  0.0000000  )

     number of k points=     7  Gaussian smearing, width (Ry)=  0.0100
                       cart. coord. in units 2pi/alat
        k(    1) = (   0.3333333   0.5773489   0.0000000), wk =   0.1428571
        k(    2) = (   0.3333333   0.5773489   0.1507269), wk =   0.1428571
        k(    3) = (   0.3333333   0.5773489   0.3014539), wk =   0.1428571
        k(    4) = (   0.3333333   0.5773489   0.3768173), wk =   0.1428571
        k(    5) = (   0.3333333   0.5773489   0.4521808), wk =   0.1428571
        k(    6) = (   0.3333333   0.5773489   0.6029077), wk =   0.1428571
        k(    7) = (   0.0000000   0.0000000   0.3768173), wk =   0.1428571

                       cryst. coord.
        k(    1) = (   0.3333333   0.3333333   0.0000000), wk =   0.1428571
        k(    2) = (   0.3333333   0.3333333   0.2000000), wk =   0.1428571
        k(    3) = (   0.3333333   0.3333333   0.4000000), wk =   0.1428571
        k(    4) = (   0.3333333   0.3333333   0.5000000), wk =   0.1428571
        k(    5) = (   0.3333333   0.3333333   0.6000000), wk =   0.1428571
        k(    6) = (   0.3333333   0.3333333   0.8000000), wk =   0.1428571
        k(    7) = (   0.0000000   0.0000000   0.5000000), wk =   0.1428571

     Dense  grid:    60703 G-vectors     FFT dimensions: (  48,  48,  64)

     Smooth grid:    32985 G-vectors     FFT dimensions: (  40,  40,  54)

     Dynamical RAM for                 wfc:       1.76 MB

     Dynamical RAM for     wfc (w. buffer):       1.76 MB

     Dynamical RAM for           str. fact:       0.46 MB

     Dynamical RAM for           local pot:       0.00 MB

     Dynamical RAM for          nlocal pot:       3.21 MB

     Dynamical RAM for                qrad:       3.64 MB

     Dynamical RAM for          rho,v,vnew:      12.31 MB

     Dynamical RAM for           G-vectors:       1.86 MB

     Dynamical RAM for          h,s,v(r/c):       0.14 MB

     Dynamical RAM for          <psi|beta>:       0.09 MB

     Dynamical RAM for                 psi:       3.53 MB

     Dynamical RAM for                hpsi:       3.53 MB

     Dynamical RAM for                spsi:       3.53 MB

     Dynamical RAM for      wfcinit/wfcrot:       2.66 MB

     Dynamical RAM for           addusdens:     283.92 MB

     Estimated static dynamical RAM per process >      28.68 MB

     Estimated max dynamical RAM per process >     312.60 MB

     Estimated total dynamical RAM >     625.20 MB

     The potential is recalculated from file :
     /home/user/workspace/qe_runs/strain_trans_p0025/out/tetrans_p0025.save/charge-density

     Starting wfcs are   24 randomized atomic wfcs +    4 random wfcs

     Band Structure Calculation
     Davidson diagonalization with overlap

     Computing kpt #:     1  of     7
     total cpu time spent up to now is        1.9 secs

     Computing kpt #:     2  of     7
     total cpu time spent up to now is        2.7 secs

     Computing kpt #:     3  of     7
     total cpu time spent up to now is        3.4 secs

     Computing kpt #:     4  of     7
     total cpu time spent up to now is        4.3 secs

     Computing kpt #:     5  of     7
     total cpu time spent up to now is        5.1 secs

     Computing kpt #:     6  of     7
     total cpu time spent up to now is        5.8 secs

     Computing kpt #:     7  of     7
     total cpu time spent up to now is        6.9 secs

     ethr =  1.00E-06,  avg # of iterations = 35.9

     total cpu time spent up to now is        6.9 secs

     End of band structure calculation

          k = 0.3333 0.5773 0.0000 (  4134 PWs)   bands (ev):

    -6.5361  -6.5361  -4.7056  -4.7026  -4.7026  -4.6912   1.2014   1.3893
     1.3893   1.4028   2.7235   2.7236   2.8217   3.0176   3.0176   3.0519
     3.4099   3.4099   8.6631   8.7044   8.8693   8.8693   9.1128   9.1128
    10.8034  10.8034  11.8008  11.8009

          k = 0.3333 0.5773 0.1507 (  4134 PWs)   bands (ev):

    -6.4321  -6.4266  -5.1789  -5.1738  -4.3180  -4.3076   0.8410   0.8686
     1.2003   1.3472   1.9301   2.0446   2.9791   3.1594   4.0235   4.0862
     4.4109   4.6194   7.9538   8.1001   8.5174   8.5725   8.5844   8.6484
    11.0895  11.1397  11.5574  11.5968

          k = 0.3333 0.5773 0.3015 (  4125 PWs)   bands (ev):

    -6.1311  -6.1216  -5.6856  -5.6755  -4.0806  -4.0747   0.7438   0.7441
     0.8052   0.8445   1.1382   1.2440   4.3266   4.4300   5.3029   5.5126
     5.5644   5.9216   6.5448   6.6406   7.4670   7.6377   7.7210   7.7674
    11.7265  11.7461  11.9454  11.9901

          k = 0.3333 0.5773 0.3768 (  4116 PWs)   bands (ev):

    -5.9217  -5.9217  -5.9149  -5.9078  -4.0451  -4.0451   0.7083   0.7083
     0.8578   0.9110   0.9839   0.9839   4.7821   4.7821   5.7411   5.7412
     5.9888   6.1163   6.1163   6.1289   7.2574   7.3236   7.4887   7.4887
    11.8309  11.8309  12.4924  12.4970

          k = 0.3333 0.5773 0.4522 (  4125 PWs)   bands (ev):

    -6.1311  -6.1216  -5.6856  -5.6755  -4.0806  -4.0747   0.7438   0.7441
     0.8052   0.8445   1.1382   1.2440   4.3266   4.4300   5.3029   5.5126
     5.5644   5.9216   6.5448   6.6406   7.4670   7.6377   7.7210   7.7674
    11.7265  11.7461  11.9455  11.9901

          k = 0.3333 0.5773 0.6029 (  4134 PWs)   bands (ev):

    -6.4321  -6.4266  -5.1789  -5.1738  -4.3180  -4.3076   0.8410   0.8686
     1.2003   1.3472   1.9301   2.0446   2.9791   3.1594   4.0235   4.0862
     4.4109   4.6194   7.9538   8.1001   8.5174   8.5725   8.5844   8.6484
    11.0895  11.1397  11.5574  11.5967

          k = 0.0000 0.0000 0.3768 (  4142 PWs)   bands (ev):

    -6.7977  -6.7977  -6.7947  -6.7947  -2.2428  -2.2428   1.7894   1.7894
     3.1096   3.1096   3.3951   3.3951   4.4932   4.4932   4.7186   4.7186
     4.9969   4.9969   6.3856   6.3856   6.4804   6.4804   6.7114   6.7114
     9.9820   9.9820  11.2476  11.2476

     Writing all to output data dir /home/user/workspace/qe_runs/strain_trans_p0025/out/tetrans_p0025.save/ :
     XML data file, pseudopotentials, collected wavefunctions

     init_run     :      0.85s CPU      0.96s WALL (       1 calls)
     electrons    :      5.53s CPU      5.75s WALL (       1 calls)

     Called by init_run:
     wfcinit      :      0.00s CPU      0.00s WALL (       1 calls)
     wfcinit:atom :      0.00s CPU      0.00s WALL (       7 calls)
     wfcinit:wfcr :      0.26s CPU      0.27s WALL (       7 calls)
     potinit      :      0.16s CPU      0.17s WALL (       1 calls)
     hinit0       :      0.43s CPU      0.44s WALL (       1 calls)

     Called by electrons:
     c_bands      :      5.53s CPU      5.75s WALL (       1 calls)
     v_of_rho     :      0.03s CPU      0.03s WALL (       1 calls)
     v_h          :      0.00s CPU      0.00s WALL (       1 calls)
     v_xc         :      0.02s CPU      0.02s WALL (       1 calls)
     newd         :      0.24s CPU      0.34s WALL (       1 calls)

     Called by c_bands:
     init_us_2    :      0.00s CPU      0.01s WALL (       7 calls)
     cegterg      :      5.10s CPU      5.29s WALL (      17 calls)

     Called by sum_band:

     Called by *egterg:
     cdiaghg      :      0.21s CPU      0.21s WALL (     258 calls)
     cegterg:over :      0.28s CPU      0.28s WALL (     251 calls)
     cegterg:upda :      0.17s CPU      0.20s WALL (     251 calls)
     cegterg:last :      0.33s CPU      0.34s WALL (     104 calls)
     h_psi        :      3.95s CPU      4.12s WALL (     275 calls)
     s_psi        :      0.24s CPU      0.24s WALL (     275 calls)
     g_psi        :      0.05s CPU      0.05s WALL (     251 calls)

     Called by h_psi:
     h_psi:calbec :      0.29s CPU      0.30s WALL (     275 calls)
     vloc_psi     :      3.41s CPU      3.55s WALL (     275 calls)
                                        0.00s GPU  (     275 calls)
     add_vuspsi   :      0.24s CPU      0.24s WALL (     275 calls)

     General routines
     calbec       :      0.29s CPU      0.30s WALL (     275 calls)
     fft          :      0.17s CPU      0.18s WALL (      19 calls)
     ffts         :      0.13s CPU      0.14s WALL (       4 calls)
     fftw         :      3.00s CPU      3.11s WALL (   12636 calls)
     interpolate  :      0.14s CPU      0.14s WALL (       4 calls)
     davcio       :      0.00s CPU      0.01s WALL (      14 calls)

     Parallel routines

     PWSCF        :      6.56s CPU      7.53s WALL


   This run was terminated on:   8: 0: 4  20Aug2026            

=------------------------------------------------------------------------------=
   JOB DONE.
=------------------------------------------------------------------------------=
