
     Program PWSCF v.7.5 starts on 20Aug2026 at  7:56:42 

     This program is part of the open-source Quantum ESPRESSO suite
     for quantum simulation of materials; please cite
         "P. Giannozzi et al., J. Phys.:Condens. Matter 21 395502 (2009);
         "P. Giannozzi et al., J. Phys.:Condens. Matter 29 465901 (2017);
         "P. Giannozzi et al., J. Chem. Phys. 152 154105 (2020);
          URL http://www.quantum-espresso.org", 
     in publications or presentations arising from this work. More details at
     http://www.quantum-espresso.org/quote

     Parallel version (MPI & OpenMP), running on       2 processor cores
     Number of MPI processes:                 2
     Threads/MPI process:                     1

     MPI processes distributed on     1 nodes
     1708 MiB available memory on the printing compute node when the environment starts

     Reading input from strain_trans_p0025/scf.in

     Current dimensions of program PWSCF are:
     Max number of different atomic species (ntypx) = 10
     Max number of k-points (npk) =  40000
     Max angular momentum in pseudopotentials (lmaxx) =  4
     file Te.rel-pbe-n-rrkjus_psl.1.0.0.UPF: wavefunction(s)  5S renormalized

     R & G space division:  proc/nbgrp/npool/nimage =       2
     Subspace diagonalization in iterative solution of the eigenvalue problem:
     a serial algorithm will be used


     Parallelization info
     --------------------
     sticks:   dense  smooth     PW     G-vecs:    dense   smooth      PW
     Min         741     483    150                30349    16492    2850
     Max         742     484    151                30354    16493    2855
     Sum        1483     967    301                60703    32985    5705

     Using Slab Decomposition



     bravais-lattice index     =            0
     lattice parameter (alat)  =       8.4439  a.u.
     unit-cell volume          =     691.8271 (a.u.)^3
     number of atoms/cell      =            3
     number of atomic types    =            1
     number of electrons       =        18.00
     number of Kohn-Sham states=           26
     kinetic-energy cutoff     =      50.0000  Ry
     charge density cutoff     =     300.0000  Ry
     scf convergence threshold =      1.0E-08
     mixing beta               =       0.4000
     number of iterations used =            8  plain     mixing
     Exchange-correlation= PBE
                           (   1   4   3   4   0   0   0)
     Non magnetic calculation with spin-orbit


     celldm(1)=   8.443863  celldm(2)=   0.000000  celldm(3)=   0.000000
     celldm(4)=   0.000000  celldm(5)=   0.000000  celldm(6)=   0.000000

     crystal axes: (cart. coord. in units of alat)
               a(1) = (   1.000000   0.000000   0.000000 )  
               a(2) = (  -0.500011   0.866034   0.000000 )  
               a(3) = (   0.000000   0.000000   1.326903 )  

     reciprocal axes: (cart. coord. in units 2 pi/alat)
               b(1) = (  1.000000  0.577358 -0.000000 )  
               b(2) = (  0.000000  1.154689  0.000000 )  
               b(3) = (  0.000000 -0.000000  0.753635 )  


     PseudoPot. # 1 for Te read from file:
     /home/user/workspace/qe_runs/pseudo/Te.rel-pbe-n-rrkjus_psl.1.0.0.UPF
     MD5 check sum: 7fd30b6833abd190471e4dcc2367351b
     Pseudo is Ultrasoft + core correction, Zval =  6.0
     Generated using &quot;atomic&quot; code by A. Dal Corso  v.6.3
     Using radial grid of 1245 points, 10 beta functions with: 
                l(1) =   0
                l(2) =   0
                l(3) =   1
                l(4) =   1
                l(5) =   1
                l(6) =   1
                l(7) =   2
                l(8) =   2
                l(9) =   2
               l(10) =   2
     Q(r) pseudized with 0 coefficients 


     atomic species   valence    mass     pseudopotential
     Te                6.00   127.60000     Te( 1.00)

     No symmetry found


                                    s                        frac. trans.

      isym =  1     identity                                     

 cryst.   s( 1) = (     1          0          0      )
                  (     0          1          0      )
                  (     0          0          1      )

 cart.    s( 1) = (  1.0000000 -0.0000000  0.0000000 )
                  (  0.0000000  1.0000000  0.0000000 )
                  (  0.0000000  0.0000000  1.0000000 )


   Cartesian axes

     site n.     atom                  positions (alat units)
         1        Te     tau(   1) = (   0.2636000   0.0000000   0.4423009  )
         2        Te     tau(   2) = (  -0.1318029   0.2282865   0.8846019  )
         3        Te     tau(   3) = (  -0.1317971  -0.2282865   0.0000000  )

   Crystallographic axes

     site n.     atom                  positions (cryst. coord.)
         1        Te     tau(   1) = (  0.2636000  0.0000000  0.3333333  )
         2        Te     tau(   2) = (  0.0000000  0.2636000  0.6666667  )
         3        Te     tau(   3) = ( -0.2636000 -0.2636000  0.0000000  )

     number of k points=   112  Gaussian smearing, width (Ry)=  0.0100
                       cart. coord. in units 2pi/alat
        k(    1) = (   0.0000000   0.0000000   0.0000000), wk =   0.0046296
        k(    2) = (   0.0000000   0.0000000   0.1256058), wk =   0.0092593
        k(    3) = (   0.0000000   0.0000000   0.2512116), wk =   0.0092593
        k(    4) = (   0.0000000   0.0000000  -0.3768173), wk =   0.0046296
        k(    5) = (   0.0000000   0.1924482   0.0000000), wk =   0.0092593
        k(    6) = (   0.0000000   0.1924482   0.1256058), wk =   0.0092593
        k(    7) = (   0.0000000   0.1924482   0.2512116), wk =   0.0092593
        k(    8) = (   0.0000000   0.1924482  -0.3768173), wk =   0.0092593
        k(    9) = (   0.0000000   0.3848964   0.0000000), wk =   0.0092593
        k(   10) = (   0.0000000   0.3848964   0.1256058), wk =   0.0092593
        k(   11) = (   0.0000000   0.3848964   0.2512116), wk =   0.0092593
        k(   12) = (   0.0000000   0.3848964  -0.3768173), wk =   0.0092593
        k(   13) = (   0.0000000  -0.5773446   0.0000000), wk =   0.0046296
        k(   14) = (   0.0000000  -0.5773446   0.1256058), wk =   0.0092593
        k(   15) = (   0.0000000  -0.5773446   0.2512116), wk =   0.0092593
        k(   16) = (   0.0000000  -0.5773446  -0.3768173), wk =   0.0046296
        k(   17) = (   0.1666667   0.0962263   0.0000000), wk =   0.0092593
        k(   18) = (   0.1666667   0.0962263   0.1256058), wk =   0.0092593
        k(   19) = (   0.1666667   0.0962263   0.2512116), wk =   0.0092593
        k(   20) = (   0.1666667   0.0962263  -0.3768173), wk =   0.0092593
        k(   21) = (   0.1666667   0.2886745   0.0000000), wk =   0.0092593
        k(   22) = (   0.1666667   0.2886745   0.1256058), wk =   0.0092593
        k(   23) = (   0.1666667   0.2886745   0.2512116), wk =   0.0092593
        k(   24) = (   0.1666667   0.2886745  -0.3768173), wk =   0.0092593
        k(   25) = (   0.1666667   0.4811227   0.0000000), wk =   0.0092593
        k(   26) = (   0.1666667   0.4811227   0.1256058), wk =   0.0092593
        k(   27) = (   0.1666667   0.4811227   0.2512116), wk =   0.0092593
        k(   28) = (   0.1666667   0.4811227  -0.3768173), wk =   0.0092593
        k(   29) = (   0.1666667  -0.4811184   0.0000000), wk =   0.0092593
        k(   30) = (   0.1666667  -0.4811184   0.1256058), wk =   0.0092593
        k(   31) = (   0.1666667  -0.4811184   0.2512116), wk =   0.0092593
        k(   32) = (   0.1666667  -0.4811184  -0.3768173), wk =   0.0092593
        k(   33) = (   0.1666667  -0.2886702   0.0000000), wk =   0.0092593
        k(   34) = (   0.1666667  -0.2886702   0.1256058), wk =   0.0092593
        k(   35) = (   0.1666667  -0.2886702   0.2512116), wk =   0.0092593
        k(   36) = (   0.1666667  -0.2886702  -0.3768173), wk =   0.0092593
        k(   37) = (   0.1666667  -0.0962220   0.0000000), wk =   0.0092593
        k(   38) = (   0.1666667  -0.0962220   0.1256058), wk =   0.0092593
        k(   39) = (   0.1666667  -0.0962220   0.2512116), wk =   0.0092593
        k(   40) = (   0.1666667  -0.0962220  -0.3768173), wk =   0.0092593
        k(   41) = (   0.3333333   0.1924525   0.0000000), wk =   0.0092593
        k(   42) = (   0.3333333   0.1924525   0.1256058), wk =   0.0092593
        k(   43) = (   0.3333333   0.1924525   0.2512116), wk =   0.0092593
        k(   44) = (   0.3333333   0.1924525  -0.3768173), wk =   0.0092593
        k(   45) = (   0.3333333   0.3849007   0.0000000), wk =   0.0092593
        k(   46) = (   0.3333333   0.3849007   0.1256058), wk =   0.0092593
        k(   47) = (   0.3333333   0.3849007   0.2512116), wk =   0.0092593
        k(   48) = (   0.3333333   0.3849007  -0.3768173), wk =   0.0092593
        k(   49) = (   0.3333333   0.5773490   0.0000000), wk =   0.0092593
        k(   50) = (   0.3333333   0.5773490   0.1256058), wk =   0.0092593
        k(   51) = (   0.3333333   0.5773490   0.2512116), wk =   0.0092593
        k(   52) = (   0.3333333   0.5773490  -0.3768173), wk =   0.0092593
        k(   53) = (   0.3333333  -0.3848921   0.0000000), wk =   0.0092593
        k(   54) = (   0.3333333  -0.3848921   0.1256058), wk =   0.0092593
        k(   55) = (   0.3333333  -0.3848921   0.2512116), wk =   0.0092593
        k(   56) = (   0.3333333  -0.3848921  -0.3768173), wk =   0.0092593
        k(   57) = (   0.3333333  -0.1924439   0.0000000), wk =   0.0092593
        k(   58) = (   0.3333333  -0.1924439   0.1256058), wk =   0.0092593
        k(   59) = (   0.3333333  -0.1924439   0.2512116), wk =   0.0092593
        k(   60) = (   0.3333333  -0.1924439  -0.3768173), wk =   0.0092593
        k(   61) = (   0.3333333   0.0000043   0.0000000), wk =   0.0092593
        k(   62) = (   0.3333333   0.0000043   0.1256058), wk =   0.0092593
        k(   63) = (   0.3333333   0.0000043   0.2512116), wk =   0.0092593
        k(   64) = (   0.3333333   0.0000043  -0.3768173), wk =   0.0092593
        k(   65) = (  -0.5000000  -0.2886788   0.0000000), wk =   0.0046296
        k(   66) = (  -0.5000000  -0.2886788   0.1256058), wk =   0.0092593
        k(   67) = (  -0.5000000  -0.2886788   0.2512116), wk =   0.0092593
        k(   68) = (  -0.5000000  -0.2886788  -0.3768173), wk =   0.0046296
        k(   69) = (  -0.5000000  -0.0962306   0.0000000), wk =   0.0092593
        k(   70) = (  -0.5000000  -0.0962306   0.1256058), wk =   0.0092593
        k(   71) = (  -0.5000000  -0.0962306   0.2512116), wk =   0.0092593
        k(   72) = (  -0.5000000  -0.0962306  -0.3768173), wk =   0.0092593
        k(   73) = (  -0.5000000   0.0962176   0.0000000), wk =   0.0092593
        k(   74) = (  -0.5000000   0.0962176   0.1256058), wk =   0.0092593
        k(   75) = (  -0.5000000   0.0962176   0.2512116), wk =   0.0092593
        k(   76) = (  -0.5000000   0.0962176  -0.3768173), wk =   0.0092593
        k(   77) = (  -0.5000000  -0.8660234   0.0000000), wk =   0.0046296
        k(   78) = (  -0.5000000  -0.8660234   0.1256058), wk =   0.0092593
        k(   79) = (  -0.5000000  -0.8660234   0.2512116), wk =   0.0092593
        k(   80) = (  -0.5000000  -0.8660234  -0.3768173), wk =   0.0046296
        k(   81) = (   0.0000000  -0.1924482   0.1256058), wk =   0.0092593
        k(   82) = (   0.0000000  -0.1924482   0.2512116), wk =   0.0092593
        k(   83) = (   0.0000000  -0.3848964   0.1256058), wk =   0.0092593
        k(   84) = (   0.0000000  -0.3848964   0.2512116), wk =   0.0092593
        k(   85) = (  -0.1666667  -0.0962263   0.1256058), wk =   0.0092593
        k(   86) = (  -0.1666667  -0.0962263   0.2512116), wk =   0.0092593
        k(   87) = (  -0.1666667  -0.2886745   0.1256058), wk =   0.0092593
        k(   88) = (  -0.1666667  -0.2886745   0.2512116), wk =   0.0092593
        k(   89) = (  -0.1666667  -0.4811227   0.1256058), wk =   0.0092593
        k(   90) = (  -0.1666667  -0.4811227   0.2512116), wk =   0.0092593
        k(   91) = (  -0.1666667   0.4811184   0.1256058), wk =   0.0092593
        k(   92) = (  -0.1666667   0.4811184   0.2512116), wk =   0.0092593
        k(   93) = (  -0.1666667   0.2886702   0.1256058), wk =   0.0092593
        k(   94) = (  -0.1666667   0.2886702   0.2512116), wk =   0.0092593
        k(   95) = (  -0.1666667   0.0962220   0.1256058), wk =   0.0092593
        k(   96) = (  -0.1666667   0.0962220   0.2512116), wk =   0.0092593
        k(   97) = (  -0.3333333  -0.1924525   0.1256058), wk =   0.0092593
        k(   98) = (  -0.3333333  -0.1924525   0.2512116), wk =   0.0092593
        k(   99) = (  -0.3333333  -0.3849007   0.1256058), wk =   0.0092593
        k(  100) = (  -0.3333333  -0.3849007   0.2512116), wk =   0.0092593
        k(  101) = (  -0.3333333  -0.5773490   0.1256058), wk =   0.0092593
        k(  102) = (  -0.3333333  -0.5773490   0.2512116), wk =   0.0092593
        k(  103) = (  -0.3333333   0.3848921   0.1256058), wk =   0.0092593
        k(  104) = (  -0.3333333   0.3848921   0.2512116), wk =   0.0092593
        k(  105) = (  -0.3333333   0.1924439   0.1256058), wk =   0.0092593
        k(  106) = (  -0.3333333   0.1924439   0.2512116), wk =   0.0092593
        k(  107) = (  -0.3333333  -0.0000043   0.1256058), wk =   0.0092593
        k(  108) = (  -0.3333333  -0.0000043   0.2512116), wk =   0.0092593
        k(  109) = (   0.5000000   0.0962306   0.1256058), wk =   0.0092593
        k(  110) = (   0.5000000   0.0962306   0.2512116), wk =   0.0092593
        k(  111) = (   0.5000000  -0.0962176   0.1256058), wk =   0.0092593
        k(  112) = (   0.5000000  -0.0962176   0.2512116), wk =   0.0092593

                       cryst. coord.
        k(    1) = (   0.0000000   0.0000000   0.0000000), wk =   0.0046296
        k(    2) = (   0.0000000   0.0000000   0.1666667), wk =   0.0092593
        k(    3) = (   0.0000000   0.0000000   0.3333333), wk =   0.0092593
        k(    4) = (   0.0000000   0.0000000  -0.5000000), wk =   0.0046296
        k(    5) = (   0.0000000   0.1666667   0.0000000), wk =   0.0092593
        k(    6) = (   0.0000000   0.1666667   0.1666667), wk =   0.0092593
        k(    7) = (   0.0000000   0.1666667   0.3333333), wk =   0.0092593
        k(    8) = (   0.0000000   0.1666667  -0.5000000), wk =   0.0092593
        k(    9) = (   0.0000000   0.3333333   0.0000000), wk =   0.0092593
        k(   10) = (   0.0000000   0.3333333   0.1666667), wk =   0.0092593
        k(   11) = (   0.0000000   0.3333333   0.3333333), wk =   0.0092593
        k(   12) = (   0.0000000   0.3333333  -0.5000000), wk =   0.0092593
        k(   13) = (   0.0000000  -0.5000000   0.0000000), wk =   0.0046296
        k(   14) = (   0.0000000  -0.5000000   0.1666667), wk =   0.0092593
        k(   15) = (   0.0000000  -0.5000000   0.3333333), wk =   0.0092593
        k(   16) = (   0.0000000  -0.5000000  -0.5000000), wk =   0.0046296
        k(   17) = (   0.1666667   0.0000000   0.0000000), wk =   0.0092593
        k(   18) = (   0.1666667   0.0000000   0.1666667), wk =   0.0092593
        k(   19) = (   0.1666667   0.0000000   0.3333333), wk =   0.0092593
        k(   20) = (   0.1666667   0.0000000  -0.5000000), wk =   0.0092593
        k(   21) = (   0.1666667   0.1666667   0.0000000), wk =   0.0092593
        k(   22) = (   0.1666667   0.1666667   0.1666667), wk =   0.0092593
        k(   23) = (   0.1666667   0.1666667   0.3333333), wk =   0.0092593
        k(   24) = (   0.1666667   0.1666667  -0.5000000), wk =   0.0092593
        k(   25) = (   0.1666667   0.3333333   0.0000000), wk =   0.0092593
        k(   26) = (   0.1666667   0.3333333   0.1666667), wk =   0.0092593
        k(   27) = (   0.1666667   0.3333333   0.3333333), wk =   0.0092593
        k(   28) = (   0.1666667   0.3333333  -0.5000000), wk =   0.0092593
        k(   29) = (   0.1666667  -0.5000000   0.0000000), wk =   0.0092593
        k(   30) = (   0.1666667  -0.5000000   0.1666667), wk =   0.0092593
        k(   31) = (   0.1666667  -0.5000000   0.3333333), wk =   0.0092593
        k(   32) = (   0.1666667  -0.5000000  -0.5000000), wk =   0.0092593
        k(   33) = (   0.1666667  -0.3333333   0.0000000), wk =   0.0092593
        k(   34) = (   0.1666667  -0.3333333   0.1666667), wk =   0.0092593
        k(   35) = (   0.1666667  -0.3333333   0.3333333), wk =   0.0092593
        k(   36) = (   0.1666667  -0.3333333  -0.5000000), wk =   0.0092593
        k(   37) = (   0.1666667  -0.1666667   0.0000000), wk =   0.0092593
        k(   38) = (   0.1666667  -0.1666667   0.1666667), wk =   0.0092593
        k(   39) = (   0.1666667  -0.1666667   0.3333333), wk =   0.0092593
        k(   40) = (   0.1666667  -0.1666667  -0.5000000), wk =   0.0092593
        k(   41) = (   0.3333333   0.0000000   0.0000000), wk =   0.0092593
        k(   42) = (   0.3333333   0.0000000   0.1666667), wk =   0.0092593
        k(   43) = (   0.3333333   0.0000000   0.3333333), wk =   0.0092593
        k(   44) = (   0.3333333   0.0000000  -0.5000000), wk =   0.0092593
        k(   45) = (   0.3333333   0.1666667   0.0000000), wk =   0.0092593
        k(   46) = (   0.3333333   0.1666667   0.1666667), wk =   0.0092593
        k(   47) = (   0.3333333   0.1666667   0.3333333), wk =   0.0092593
        k(   48) = (   0.3333333   0.1666667  -0.5000000), wk =   0.0092593
        k(   49) = (   0.3333333   0.3333333   0.0000000), wk =   0.0092593
        k(   50) = (   0.3333333   0.3333333   0.1666667), wk =   0.0092593
        k(   51) = (   0.3333333   0.3333333   0.3333333), wk =   0.0092593
        k(   52) = (   0.3333333   0.3333333  -0.5000000), wk =   0.0092593
        k(   53) = (   0.3333333  -0.5000000   0.0000000), wk =   0.0092593
        k(   54) = (   0.3333333  -0.5000000   0.1666667), wk =   0.0092593
        k(   55) = (   0.3333333  -0.5000000   0.3333333), wk =   0.0092593
        k(   56) = (   0.3333333  -0.5000000  -0.5000000), wk =   0.0092593
        k(   57) = (   0.3333333  -0.3333333   0.0000000), wk =   0.0092593
        k(   58) = (   0.3333333  -0.3333333   0.1666667), wk =   0.0092593
        k(   59) = (   0.3333333  -0.3333333   0.3333333), wk =   0.0092593
        k(   60) = (   0.3333333  -0.3333333  -0.5000000), wk =   0.0092593
        k(   61) = (   0.3333333  -0.1666667   0.0000000), wk =   0.0092593
        k(   62) = (   0.3333333  -0.1666667   0.1666667), wk =   0.0092593
        k(   63) = (   0.3333333  -0.1666667   0.3333333), wk =   0.0092593
        k(   64) = (   0.3333333  -0.1666667  -0.5000000), wk =   0.0092593
        k(   65) = (  -0.5000000   0.0000000   0.0000000), wk =   0.0046296
        k(   66) = (  -0.5000000   0.0000000   0.1666667), wk =   0.0092593
        k(   67) = (  -0.5000000   0.0000000   0.3333333), wk =   0.0092593
        k(   68) = (  -0.5000000   0.0000000  -0.5000000), wk =   0.0046296
        k(   69) = (  -0.5000000   0.1666667   0.0000000), wk =   0.0092593
        k(   70) = (  -0.5000000   0.1666667   0.1666667), wk =   0.0092593
        k(   71) = (  -0.5000000   0.1666667   0.3333333), wk =   0.0092593
        k(   72) = (  -0.5000000   0.1666667  -0.5000000), wk =   0.0092593
        k(   73) = (  -0.5000000   0.3333333   0.0000000), wk =   0.0092593
        k(   74) = (  -0.5000000   0.3333333   0.1666667), wk =   0.0092593
        k(   75) = (  -0.5000000   0.3333333   0.3333333), wk =   0.0092593
        k(   76) = (  -0.5000000   0.3333333  -0.5000000), wk =   0.0092593
        k(   77) = (  -0.5000000  -0.5000000   0.0000000), wk =   0.0046296
        k(   78) = (  -0.5000000  -0.5000000   0.1666667), wk =   0.0092593
        k(   79) = (  -0.5000000  -0.5000000   0.3333333), wk =   0.0092593
        k(   80) = (  -0.5000000  -0.5000000  -0.5000000), wk =   0.0046296
        k(   81) = (   0.0000000  -0.1666667   0.1666667), wk =   0.0092593
        k(   82) = (   0.0000000  -0.1666667   0.3333333), wk =   0.0092593
        k(   83) = (   0.0000000  -0.3333333   0.1666667), wk =   0.0092593
        k(   84) = (   0.0000000  -0.3333333   0.3333333), wk =   0.0092593
        k(   85) = (  -0.1666667  -0.0000000   0.1666667), wk =   0.0092593
        k(   86) = (  -0.1666667  -0.0000000   0.3333333), wk =   0.0092593
        k(   87) = (  -0.1666667  -0.1666667   0.1666667), wk =   0.0092593
        k(   88) = (  -0.1666667  -0.1666667   0.3333333), wk =   0.0092593
        k(   89) = (  -0.1666667  -0.3333333   0.1666667), wk =   0.0092593
        k(   90) = (  -0.1666667  -0.3333333   0.3333333), wk =   0.0092593
        k(   91) = (  -0.1666667   0.5000000   0.1666667), wk =   0.0092593
        k(   92) = (  -0.1666667   0.5000000   0.3333333), wk =   0.0092593
        k(   93) = (  -0.1666667   0.3333333   0.1666667), wk =   0.0092593
        k(   94) = (  -0.1666667   0.3333333   0.3333333), wk =   0.0092593
        k(   95) = (  -0.1666667   0.1666667   0.1666667), wk =   0.0092593
        k(   96) = (  -0.1666667   0.1666667   0.3333333), wk =   0.0092593
        k(   97) = (  -0.3333333  -0.0000000   0.1666667), wk =   0.0092593
        k(   98) = (  -0.3333333  -0.0000000   0.3333333), wk =   0.0092593
        k(   99) = (  -0.3333333  -0.1666667   0.1666667), wk =   0.0092593
        k(  100) = (  -0.3333333  -0.1666667   0.3333333), wk =   0.0092593
        k(  101) = (  -0.3333333  -0.3333333   0.1666667), wk =   0.0092593
        k(  102) = (  -0.3333333  -0.3333333   0.3333333), wk =   0.0092593
        k(  103) = (  -0.3333333   0.5000000   0.1666667), wk =   0.0092593
        k(  104) = (  -0.3333333   0.5000000   0.3333333), wk =   0.0092593
        k(  105) = (  -0.3333333   0.3333333   0.1666667), wk =   0.0092593
        k(  106) = (  -0.3333333   0.3333333   0.3333333), wk =   0.0092593
        k(  107) = (  -0.3333333   0.1666667   0.1666667), wk =   0.0092593
        k(  108) = (  -0.3333333   0.1666667   0.3333333), wk =   0.0092593
        k(  109) = (   0.5000000  -0.1666667   0.1666667), wk =   0.0092593
        k(  110) = (   0.5000000  -0.1666667   0.3333333), wk =   0.0092593
        k(  111) = (   0.5000000  -0.3333333   0.1666667), wk =   0.0092593
        k(  112) = (   0.5000000  -0.3333333   0.3333333), wk =   0.0092593

     Dense  grid:    60703 G-vectors     FFT dimensions: (  48,  48,  64)

     Smooth grid:    32985 G-vectors     FFT dimensions: (  40,  40,  54)

     Dynamical RAM for                 wfc:       1.64 MB

     Dynamical RAM for     wfc (w. buffer):     185.15 MB

     Dynamical RAM for           str. fact:       0.46 MB

     Dynamical RAM for           local pot:       0.00 MB

     Dynamical RAM for          nlocal pot:       3.21 MB

     Dynamical RAM for                qrad:       3.64 MB

     Dynamical RAM for          rho,v,vnew:      12.31 MB

     Dynamical RAM for               rhoin:       4.10 MB

     Dynamical RAM for            rho*nmix:      29.64 MB

     Dynamical RAM for           G-vectors:       1.86 MB

     Dynamical RAM for          h,s,v(r/c):       0.12 MB

     Dynamical RAM for          <psi|beta>:       0.08 MB

     Dynamical RAM for                 psi:       3.28 MB

     Dynamical RAM for                hpsi:       3.28 MB

     Dynamical RAM for                spsi:       3.28 MB

     Dynamical RAM for      wfcinit/wfcrot:       2.47 MB

     Dynamical RAM for           addusdens:     283.92 MB

     Dynamical RAM for         addusstress:     290.87 MB

     Estimated static dynamical RAM per process >     216.17 MB

     Estimated max dynamical RAM per process >     536.68 MB

     Estimated total dynamical RAM >       1.05 GB

     Initial potential from superposition of free atoms

     starting charge      17.9993, renormalised to      18.0000
     Starting wfcs are   24 randomized atomic wfcs +    2 random wfcs

     total cpu time spent up to now is        5.7 secs

     per-process dynamical memory:   235.8 Mb

     Self-consistent Calculation

     iteration #  1     ecut=    50.00 Ry     beta= 0.40
     Davidson diagonalization with overlap

---- Real-time Memory Report at c_bands before calling an iterative solver
           351 MiB given to the printing process from OS
           231 MiB allocation reported by mallinfo(arena+hblkhd)
          1263 MiB available memory on the node where the printing process lives
------------------
     c_bands:  2 eigenvalues not converged
     c_bands:  2 eigenvalues not converged
     c_bands:  1 eigenvalues not converged
     c_bands:  2 eigenvalues not converged
     c_bands:  2 eigenvalues not converged
     c_bands:  2 eigenvalues not converged
     c_bands:  2 eigenvalues not converged
     c_bands:  2 eigenvalues not converged
     c_bands:  2 eigenvalues not converged
     c_bands:  2 eigenvalues not converged
     c_bands:  2 eigenvalues not converged
     c_bands:  2 eigenvalues not converged
     c_bands:  2 eigenvalues not converged
     c_bands:  2 eigenvalues not converged
     c_bands:  2 eigenvalues not converged
     c_bands:  2 eigenvalues not converged
     c_bands:  2 eigenvalues not converged
     c_bands:  2 eigenvalues not converged
     c_bands:  2 eigenvalues not converged
     c_bands:  2 eigenvalues not converged
     c_bands:  1 eigenvalues not converged
     c_bands:  2 eigenvalues not converged
     c_bands:  2 eigenvalues not converged
     c_bands:  2 eigenvalues not converged
     c_bands:  1 eigenvalues not converged
     c_bands:  1 eigenvalues not converged
     c_bands:  2 eigenvalues not converged
     c_bands:  2 eigenvalues not converged
     c_bands:  1 eigenvalues not converged
     c_bands:  2 eigenvalues not converged
     c_bands:  2 eigenvalues not converged
     c_bands:  2 eigenvalues not converged
     c_bands:  2 eigenvalues not converged
     c_bands:  2 eigenvalues not converged
     c_bands:  1 eigenvalues not converged
     c_bands:  2 eigenvalues not converged
     c_bands:  2 eigenvalues not converged
     c_bands:  1 eigenvalues not converged
     c_bands:  2 eigenvalues not converged
     c_bands:  2 eigenvalues not converged
     c_bands:  2 eigenvalues not converged
     c_bands:  2 eigenvalues not converged
     c_bands:  2 eigenvalues not converged
     c_bands:  2 eigenvalues not converged
     c_bands:  2 eigenvalues not converged
     c_bands:  2 eigenvalues not converged
     c_bands:  2 eigenvalues not converged
     c_bands:  2 eigenvalues not converged
     ethr =  1.00E-05,  avg # of iterations = 18.8

     total cpu time spent up to now is       59.4 secs

     total energy              =     -85.64407584 Ry
     estimated scf accuracy    <       0.01533482 Ry

     iteration #  2     ecut=    50.00 Ry     beta= 0.40
     Davidson diagonalization with overlap

---- Real-time Memory Report at c_bands before calling an iterative solver
           561 MiB given to the printing process from OS
           251 MiB allocation reported by mallinfo(arena+hblkhd)
          1215 MiB available memory on the node where the printing process lives
------------------
     ethr =  8.52E-05,  avg # of iterations =  1.1

     total cpu time spent up to now is       73.9 secs

     total energy              =     -85.64387091 Ry
     estimated scf accuracy    <       0.00451798 Ry

     iteration #  3     ecut=    50.00 Ry     beta= 0.40
     Davidson diagonalization with overlap

---- Real-time Memory Report at c_bands before calling an iterative solver
           563 MiB given to the printing process from OS
           253 MiB allocation reported by mallinfo(arena+hblkhd)
          1211 MiB available memory on the node where the printing process lives
------------------
     ethr =  2.51E-05,  avg # of iterations =  1.2

     total cpu time spent up to now is       88.6 secs

     total energy              =     -85.64411485 Ry
     estimated scf accuracy    <       0.00018488 Ry

     iteration #  4     ecut=    50.00 Ry     beta= 0.40
     Davidson diagonalization with overlap

---- Real-time Memory Report at c_bands before calling an iterative solver
           565 MiB given to the printing process from OS
           255 MiB allocation reported by mallinfo(arena+hblkhd)
          1207 MiB available memory on the node where the printing process lives
------------------
     ethr =  1.03E-06,  avg # of iterations =  5.3

     total cpu time spent up to now is      109.9 secs

     total energy              =     -85.64418005 Ry
     estimated scf accuracy    <       0.00000686 Ry

     iteration #  5     ecut=    50.00 Ry     beta= 0.40
     Davidson diagonalization with overlap

---- Real-time Memory Report at c_bands before calling an iterative solver
           567 MiB given to the printing process from OS
           257 MiB allocation reported by mallinfo(arena+hblkhd)
          1203 MiB available memory on the node where the printing process lives
------------------
     ethr =  3.81E-08,  avg # of iterations =  4.0

     total cpu time spent up to now is      131.0 secs

     total energy              =     -85.64418352 Ry
     estimated scf accuracy    <       0.00000202 Ry

     iteration #  6     ecut=    50.00 Ry     beta= 0.40
     Davidson diagonalization with overlap

---- Real-time Memory Report at c_bands before calling an iterative solver
           569 MiB given to the printing process from OS
           259 MiB allocation reported by mallinfo(arena+hblkhd)
          1199 MiB available memory on the node where the printing process lives
------------------
     ethr =  1.12E-08,  avg # of iterations =  2.1

     total cpu time spent up to now is      148.5 secs

     total energy              =     -85.64418380 Ry
     estimated scf accuracy    <       0.00000011 Ry

     iteration #  7     ecut=    50.00 Ry     beta= 0.40
     Davidson diagonalization with overlap

---- Real-time Memory Report at c_bands before calling an iterative solver
           571 MiB given to the printing process from OS
           261 MiB allocation reported by mallinfo(arena+hblkhd)
          1195 MiB available memory on the node where the printing process lives
------------------
     ethr =  6.11E-10,  avg # of iterations =  2.9

     total cpu time spent up to now is      166.4 secs

     total energy              =     -85.64418383 Ry
     estimated scf accuracy    <       0.00000002 Ry

     iteration #  8     ecut=    50.00 Ry     beta= 0.40
     Davidson diagonalization with overlap

---- Real-time Memory Report at c_bands before calling an iterative solver
           573 MiB given to the printing process from OS
           263 MiB allocation reported by mallinfo(arena+hblkhd)
          1191 MiB available memory on the node where the printing process lives
------------------
     ethr =  1.03E-10,  avg # of iterations =  2.8

     total cpu time spent up to now is      184.4 secs

     End of self-consistent calculation

          k = 0.0000 0.0000 0.0000 (  4165 PWs)   bands (ev):

    -7.6886  -7.6886  -4.3737  -4.3737  -4.3723  -4.3723   2.6844   2.6844
     2.8804   2.8804   3.3138   3.3138   4.2704   4.2704   4.3183   4.3183
     5.1779   5.1779   6.5899   6.5899   7.2084   7.2084   7.7293   7.7293
    10.9180  10.9193

     occupation numbers 
     1.0000   1.0000   1.0000   1.0000   1.0000   1.0000   1.0000   1.0000
     1.0000   1.0000   1.0000   1.0000   1.0000   1.0000   1.0000   1.0000
     1.0000   1.0000   0.0000   0.0000   0.0000   0.0000   0.0000   0.0000
     0.0000   0.0000

          k = 0.0000 0.0000 0.1256 (  4159 PWs)   bands (ev):

    -7.5885  -7.5873  -5.3060  -5.3031  -3.4148  -3.4133   2.4689   2.4701
     2.8595   3.0391   3.1211   3.5662   4.2323   4.3299   4.4096   4.4639
     5.0931   5.1996   6.4675   6.4973   6.9787   7.0636   7.4478   7.4646
    10.5965  10.6338

     occupation numbers 
     1.0000   1.0000   1.0000   1.0000   1.0000   1.0000   1.0000   1.0000
     1.0000   1.0000   1.0000   1.0000   1.0000   1.0000   1.0000   1.0000
     1.0000   1.0000   0.0000   0.0000   0.0000   0.0000   0.0000   0.0000
     0.0000   0.0000

          k = 0.0000 0.0000 0.2512 (  4129 PWs)   bands (ev):

    -7.2891  -7.2869  -6.1286  -6.1252  -2.5980  -2.5945   2.0060   2.0479
     3.0131   3.1103   3.1775   3.5907   4.3518   4.4887   4.5075   4.7388
     4.9346   5.1507   6.3399   6.3612   6.6150   6.7880   6.9088   6.9866
    10.1608  10.1788

     occupation numbers 
     1.0000   1.0000   1.0000   1.0000   1.0000   1.0000   1.0000   1.0000
     1.0000   1.0000   1.0000   1.0000   1.0000   1.0000   1.0000   1.0000
     1.0000   1.0000   0.0048   0.0025   0.0000   0.0000   0.0000   0.0000
     0.0000   0.0000

          k = 0.0000 0.0000-0.3768 (  4142 PWs)   bands (ev):

    -6.7978  -6.7978  -6.7947  -6.7947  -2.2429  -2.2429   1.7893   1.7893
     3.1095   3.1095   3.3951   3.3951   4.4932   4.4932   4.7186   4.7186
     4.9969   4.9969   6.3855   6.3855   6.4803   6.4803   6.7113   6.7113
     9.9820   9.9820

     occupation numbers 
     1.0000   1.0000   1.0000   1.0000   1.0000   1.0000   1.0000   1.0000
     1.0000   1.0000   1.0000   1.0000   1.0000   1.0000   1.0000   1.0000
     1.0000   1.0000   0.0011   0.0011   0.0000   0.0000   0.0000   0.0000
     0.0000   0.0000

          k = 0.0000 0.1924 0.0000 (  4137 PWs)   bands (ev):

    -7.5102  -7.5099  -4.4410  -4.4354  -4.3241  -4.3199   1.7039   1.8001
     2.2613   2.4112   2.7529   2.9894   4.4910   4.6612   4.8716   4.9583
     5.1464   5.2590   6.6894   6.7696   6.9281   7.0124   7.4852   7.5859
    10.3510  10.3909

     occupation numbers 
     1.0000   1.0000   1.0000   1.0000   1.0000   1.0000   1.0000   1.0000
     1.0000   1.0000   1.0000   1.0000   1.0000   1.0000   1.0000   1.0000
     1.0000   1.0000   0.0000   0.0000   0.0000   0.0000   0.0000   0.0000
     0.0000   0.0000

          k = 0.0000 0.1924 0.1256 (  4152 PWs)   bands (ev):

    -7.4115  -7.4101  -5.2488  -5.2456  -3.5164  -3.5137   1.7980   1.8719
     1.9648   2.0972   2.8500   3.0388   4.5967   4.7281   4.9051   5.1008
     5.2937   5.3873   6.5413   6.5699   6.7159   6.8544   7.3553   7.4157
     9.9483   9.9571

     occupation numbers 
     1.0000   1.0000   1.0000   1.0000   1.0000   1.0000   1.0000   1.0000
     1.0000   1.0000   1.0000   1.0000   1.0000   1.0000   1.0000   1.0000
     1.0000   1.0000   0.0000   0.0000   0.0000   0.0000   0.0000   0.0000
     0.0000   0.0000

          k = 0.0000 0.1924 0.2512 (  4146 PWs)   bands (ev):

    -7.1196  -7.1169  -6.0165  -6.0125  -2.8623  -2.8580   1.6587   1.7523
     2.1382   2.3141   2.9522   3.1329   4.4011   4.4727   4.6134   4.7153
     4.8788   4.9782   6.5872   6.6978   6.9104   7.0643   7.6249   7.6380
     9.9758  10.0020

     occupation numbers 
     1.0000   1.0000   1.0000   1.0000   1.0000   1.0000   1.0000   1.0000
     1.0000   1.0000   1.0000   1.0000   1.0000   1.0000   1.0000   1.0000
     1.0000   1.0000   0.0000   0.0000   0.0000   0.0000   0.0000   0.0000
     0.0000   0.0000

          k = 0.0000 0.1924-0.3768 (  4132 PWs)   bands (ev):

    -6.6662  -6.6645  -6.6277  -6.6262  -2.6235  -2.6228   1.6288   1.7101
     2.5931   2.8356   2.9064   3.0758   3.8796   4.1072   4.2082   4.3604
     4.5593   4.7575   6.7179   6.8621   7.2818   7.4179   7.8213   7.8268
    10.3979  10.4194

     occupation numbers 
     1.0000   1.0000   1.0000   1.0000   1.0000   1.0000   1.0000   1.0000
     1.0000   1.0000   1.0000   1.0000   1.0000   1.0000   1.0000   1.0000
     1.0000   1.0000   0.0000   0.0000   0.0000   0.0000   0.0000   0.0000
     0.0000   0.0000

          k = 0.0000 0.3849 0.0000 (  4136 PWs)   bands (ev):

    -7.0485  -7.0478  -4.7501  -4.7448  -4.2094  -4.2055   1.0140   1.0704
     1.5849   1.7483   2.2814   2.4970   3.4754   3.5508   4.7780   4.9283
     5.0129   5.1592   6.8070   6.9121   7.0383   7.0772   8.7048   8.7213
     9.3393   9.3681

     occupation numbers 
     1.0000   1.0000   1.0000   1.0000   1.0000   1.0000   1.0000   1.0000
     1.0000   1.0000   1.0000   1.0000   1.0000   1.0000   1.0000   1.0000
     1.0000   1.0000   0.0000   0.0000   0.0000   0.0000   0.0000   0.0000
     0.0000   0.0000

          k = 0.0000 0.3849 0.1256 (  4128 PWs)   bands (ev):

    -6.9524  -6.9499  -5.2241  -5.2198  -3.7784  -3.7721   0.8587   0.8869
     1.3457   1.4455   2.3986   2.5375   4.1841   4.4379   4.6598   4.9334
     4.9510   5.1548   6.7388   6.7982   7.2203   7.3239   7.8341   7.8613
     9.2705   9.3304

     occupation numbers 
     1.0000   1.0000   1.0000   1.0000   1.0000   1.0000   1.0000   1.0000
     1.0000   1.0000   1.0000   1.0000   1.0000   1.0000   1.0000   1.0000
     1.0000   1.0000   0.0000   0.0000   0.0000   0.0000   0.0000   0.0000
     0.0000   0.0000

          k = 0.0000 0.3849 0.2512 (  4133 PWs)   bands (ev):

    -6.6852  -6.6804  -5.7909  -5.7846  -3.4762  -3.4700   0.6930   0.7373
     1.5839   1.7019   2.5432   2.6576   3.9113   4.0742   4.2951   4.3983
     5.7174   5.7706   6.6107   6.6825   7.2521   7.3846   7.7292   8.0663
     9.7474   9.8815

     occupation numbers 
     1.0000   1.0000   1.0000   1.0000   1.0000   1.0000   1.0000   1.0000
     1.0000   1.0000   1.0000   1.0000   1.0000   1.0000   1.0000   1.0000
     0.9999   0.9996   0.0000   0.0000   0.0000   0.0000   0.0000   0.0000
     0.0000   0.0000

          k = 0.0000 0.3849-0.3768 (  4118 PWs)   bands (ev):

    -6.3709  -6.3690  -6.1863  -6.1843  -3.4432  -3.4416   0.7833   0.8247
     2.0843   2.2086   2.4391   2.5535   3.6630   3.7282   3.9582   4.0355
     4.9114   5.0075   7.1641   7.3659   7.8294   7.9387   8.2161   8.4264
    10.4172  10.5636

     occupation numbers 
     1.0000   1.0000   1.0000   1.0000   1.0000   1.0000   1.0000   1.0000
     1.0000   1.0000   1.0000   1.0000   1.0000   1.0000   1.0000   1.0000
     1.0000   1.0000   0.0000   0.0000   0.0000   0.0000   0.0000   0.0000
     0.0000   0.0000

          k = 0.0000-0.5773 0.0000 (  4098 PWs)   bands (ev):

    -6.7024  -6.7024  -5.0608  -5.0608  -4.1437  -4.1437   0.9919   0.9919
     1.4817   1.4817   2.3134   2.3134   2.5223   2.5223   4.7712   4.7712
     5.0539   5.0539   6.8606   6.8606   6.9774   6.9774   8.9644   8.9644
     9.6519   9.6519

     occupation numbers 
     1.0000   1.0000   1.0000   1.0000   1.0000   1.0000   1.0000   1.0000
     1.0000   1.0000   1.0000   1.0000   1.0000   1.0000   1.0000   1.0000
     1.0000   1.0000   0.0000   0.0000   0.0000   0.0000   0.0000   0.0000
     0.0000   0.0000

          k = 0.0000-0.5773 0.1256 (  4108 PWs)   bands (ev):

    -6.6282  -6.6245  -5.2230  -5.2187  -4.0906  -4.0826   0.9471   0.9866
     1.1534   1.2640   2.2385   2.3966   3.1509   3.3313   4.4073   4.5759
     4.7264   4.8106   6.8548   6.8979   7.4339   7.6538   9.1068   9.1262
     9.3140   9.4261

     occupation numbers 
     1.0000   1.0000   1.0000   1.0000   1.0000   1.0000   1.0000   1.0000
     1.0000   1.0000   1.0000   1.0000   1.0000   1.0000   1.0000   1.0000
     1.0000   1.0000   0.0000   0.0000   0.0000   0.0000   0.0000   0.0000
     0.0000   0.0000

          k = 0.0000-0.5773 0.2512 (  4102 PWs)   bands (ev):

    -6.4166  -6.4101  -5.5792  -5.5715  -3.9948  -3.9878   0.4342   0.4646
     1.5905   1.6987   2.3484   2.4622   3.5694   3.8470   4.0271   4.2224
     4.7190   4.9116   7.2089   7.3010   7.8239   7.9012   8.2023   8.5319
    10.0400  10.2538

     occupation numbers 
     1.0000   1.0000   1.0000   1.0000   1.0000   1.0000   1.0000   1.0000
     1.0000   1.0000   1.0000   1.0000   1.0000   1.0000   1.0000   1.0000
     1.0000   1.0000   0.0000   0.0000   0.0000   0.0000   0.0000   0.0000
     0.0000   0.0000

          k = 0.0000-0.5773-0.3768 (  4128 PWs)   bands (ev):

    -6.2000  -6.2000  -5.8511  -5.8511  -3.9483  -3.9483   0.2499   0.2499
     2.1112   2.1112   2.2390   2.2390   3.5262   3.5262   3.8889   3.8889
     5.7410   5.7410   6.7050   6.7050   7.7412   7.7412   8.5889   8.5889
    10.5155  10.5156

     occupation numbers 
     1.0000   1.0000   1.0000   1.0000   1.0000   1.0000   1.0000   1.0000
     1.0000   1.0000   1.0000   1.0000   1.0000   1.0000   1.0000   1.0000
     0.9999   0.9999   0.0000   0.0000   0.0000   0.0000   0.0000   0.0000
     0.0000   0.0000

          k = 0.1667 0.0962 0.0000 (  4137 PWs)   bands (ev):

    -7.5102  -7.5099  -4.4410  -4.4353  -4.3241  -4.3200   1.7039   1.8001
     2.2613   2.4112   2.7528   2.9894   4.4910   4.6612   4.8717   4.9584
     5.1464   5.2590   6.6893   6.7696   6.9281   7.0124   7.4852   7.5858
    10.3510  10.3909

     occupation numbers 
     1.0000   1.0000   1.0000   1.0000   1.0000   1.0000   1.0000   1.0000
     1.0000   1.0000   1.0000   1.0000   1.0000   1.0000   1.0000   1.0000
     1.0000   1.0000   0.0000   0.0000   0.0000   0.0000   0.0000   0.0000
     0.0000   0.0000

          k = 0.1667 0.0962 0.1256 (  4152 PWs)   bands (ev):

    -7.4141  -7.4127  -5.2212  -5.2180  -3.5730  -3.5702   1.7708   1.8589
     2.4793   2.6744   2.7550   3.1142   4.2011   4.2542   4.3458   4.5217
     4.7671   4.9541   6.9349   7.0329   7.3217   7.4461   7.7267   7.8242
    10.6360  10.6765

     occupation numbers 
     1.0000   1.0000   1.0000   1.0000   1.0000   1.0000   1.0000   1.0000
     1.0000   1.0000   1.0000   1.0000   1.0000   1.0000   1.0000   1.0000
     1.0000   1.0000   0.0000   0.0000   0.0000   0.0000   0.0000   0.0000
     0.0000   0.0000

          k = 0.1667 0.0962 0.2512 (  4146 PWs)   bands (ev):

    -7.1254  -7.1228  -5.9993  -5.9954  -2.9123  -2.9080   1.7841   1.8532
     2.6022   2.7644   3.0140   3.2585   3.6934   3.9153   4.1210   4.2083
     4.5895   4.7398   6.9559   6.9988   7.5821   7.6750   7.7368   7.8036
    10.5801  10.5983

     occupation numbers 
     1.0000   1.0000   1.0000   1.0000   1.0000   1.0000   1.0000   1.0000
     1.0000   1.0000   1.0000   1.0000   1.0000   1.0000   1.0000   1.0000
     1.0000   1.0000   0.0000   0.0000   0.0000   0.0000   0.0000   0.0000
     0.0000   0.0000

          k = 0.1667 0.0962-0.3768 (  4132 PWs)   bands (ev):

    -6.6662  -6.6645  -6.6277  -6.6263  -2.6235  -2.6228   1.6288   1.7101
     2.5931   2.8357   2.9064   3.0758   3.8796   4.1071   4.2082   4.3604
     4.5593   4.7574   6.7178   6.8620   7.2817   7.4179   7.8214   7.8269
    10.3979  10.4197

     occupation numbers 
     1.0000   1.0000   1.0000   1.0000   1.0000   1.0000   1.0000   1.0000
     1.0000   1.0000   1.0000   1.0000   1.0000   1.0000   1.0000   1.0000
     1.0000   1.0000   0.0000   0.0000   0.0000   0.0000   0.0000   0.0000
     0.0000   0.0000

          k = 0.1667 0.2887 0.0000 (  4137 PWs)   bands (ev):

    -7.1858  -7.1852  -4.5757  -4.5656  -4.3143  -4.3058   1.2022   1.3169
     1.4645   1.5736   2.8123   2.9763   3.9847   4.1397   4.2728   4.3416
     4.7417   4.7901   7.4375   7.4743   7.5254   7.5612   7.8828   7.9002
    10.2140  10.2202

     occupation numbers 
     1.0000   1.0000   1.0000   1.0000   1.0000   1.0000   1.0000   1.0000
     1.0000   1.0000   1.0000   1.0000   1.0000   1.0000   1.0000   1.0000
     1.0000   1.0000   0.0000   0.0000   0.0000   0.0000   0.0000   0.0000
     0.0000   0.0000

          k = 0.1667 0.2887 0.1256 (  4137 PWs)   bands (ev):

    -7.0947  -7.0926  -5.1469  -5.1429  -3.8087  -3.8034   1.2079   1.2716
     1.6301   1.6900   2.7229   2.8604   3.5552   3.6490   4.3165   4.4342
     5.3616   5.4280   6.8134   6.8825   7.5755   7.6183   8.1836   8.2156
    10.1870  10.2173

     occupation numbers 
     1.0000   1.0000   1.0000   1.0000   1.0000   1.0000   1.0000   1.0000
     1.0000   1.0000   1.0000   1.0000   1.0000   1.0000   1.0000   1.0000
     1.0000   1.0000   0.0000   0.0000   0.0000   0.0000   0.0000   0.0000
     0.0000   0.0000

          k = 0.1667 0.2887 0.2512 (  4125 PWs)   bands (ev):

    -6.8250  -6.8211  -5.8096  -5.8044  -3.3707  -3.3649   1.2170   1.3100
     1.7220   1.8565   2.5615   2.6764   3.2566   3.4370   4.7680   4.8943
     5.1144   5.2313   6.7494   6.8033   7.5805   7.5919   8.3705   8.4243
    10.3718  10.3924

     occupation numbers 
     1.0000   1.0000   1.0000   1.0000   1.0000   1.0000   1.0000   1.0000
     1.0000   1.0000   1.0000   1.0000   1.0000   1.0000   1.0000   1.0000
     1.0000   1.0000   0.0000   0.0000   0.0000   0.0000   0.0000   0.0000
     0.0000   0.0000

          k = 0.1667 0.2887-0.3768 (  4140 PWs)   bands (ev):

    -6.4336  -6.4306  -6.3370  -6.3340  -3.2054  -3.2039   1.1957   1.2926
     2.0124   2.0242   2.1386   2.2409   3.8259   3.9863   4.3863   4.4202
     5.0754   5.1610   6.6611   6.7405   8.0368   8.0534   8.2436   8.2641
    10.5743  10.6149

     occupation numbers 
     1.0000   1.0000   1.0000   1.0000   1.0000   1.0000   1.0000   1.0000
     1.0000   1.0000   1.0000   1.0000   1.0000   1.0000   1.0000   1.0000
     1.0000   1.0000   0.0000   0.0000   0.0000   0.0000   0.0000   0.0000
     0.0000   0.0000

          k = 0.1667 0.4811 0.0000 (  4133 PWs)   bands (ev):

    -6.7281  -6.7274  -4.8804  -4.8743  -4.3331  -4.3277   1.0613   1.1341
     1.3302   1.4394   2.3969   2.5949   2.8990   3.0204   3.9217   4.0105
     4.1662   4.2067   7.6811   7.7182   8.0324   8.0458   9.1536   9.1633
     9.8148   9.8316

     occupation numbers 
     1.0000   1.0000   1.0000   1.0000   1.0000   1.0000   1.0000   1.0000
     1.0000   1.0000   1.0000   1.0000   1.0000   1.0000   1.0000   1.0000
     1.0000   1.0000   0.0000   0.0000   0.0000   0.0000   0.0000   0.0000
     0.0000   0.0000

          k = 0.1667 0.4811 0.1256 (  4124 PWs)   bands (ev):

    -6.6448  -6.6411  -5.1807  -5.1755  -4.1055  -4.0969   0.7943   0.8271
     1.2920   1.3943   2.3195   2.4510   3.1252   3.2937   3.9955   4.1290
     4.8092   4.9314   7.2356   7.2993   8.2624   8.2938   8.4137   8.4815
     9.9569  10.0111

     occupation numbers 
     1.0000   1.0000   1.0000   1.0000   1.0000   1.0000   1.0000   1.0000
     1.0000   1.0000   1.0000   1.0000   1.0000   1.0000   1.0000   1.0000
     1.0000   1.0000   0.0000   0.0000   0.0000   0.0000   0.0000   0.0000
     0.0000   0.0000

          k = 0.1667 0.4811 0.2512 (  4122 PWs)   bands (ev):

    -6.4120  -6.4052  -5.6205  -5.6124  -3.9075  -3.8998   0.5291   0.5718
     1.2693   1.3447   2.0546   2.1283   3.3748   3.5019   4.9203   5.1274
     5.4871   5.7417   6.6160   6.6771   7.3741   7.4443   8.4407   8.5512
    10.2812  10.3585

     occupation numbers 
     1.0000   1.0000   1.0000   1.0000   1.0000   1.0000   1.0000   1.0000
     1.0000   1.0000   1.0000   1.0000   1.0000   1.0000   1.0000   1.0000
     1.0000   0.9999   0.0000   0.0000   0.0000   0.0000   0.0000   0.0000
     0.0000   0.0000

          k = 0.1667 0.4811-0.3768 (  4114 PWs)   bands (ev):

    -6.1518  -6.1495  -5.9387  -5.9357  -3.8624  -3.8608   0.5156   0.5431
     1.4473   1.4760   1.5897   1.6717   4.2113   4.3144   4.6989   4.7384
     5.5087   5.5817   6.8147   6.9178   7.4935   7.5577   8.1189   8.1665
    10.7621  10.7970

     occupation numbers 
     1.0000   1.0000   1.0000   1.0000   1.0000   1.0000   1.0000   1.0000
     1.0000   1.0000   1.0000   1.0000   1.0000   1.0000   1.0000   1.0000
     1.0000   1.0000   0.0000   0.0000   0.0000   0.0000   0.0000   0.0000
     0.0000   0.0000

          k = 0.1667-0.4811 0.0000 (  4133 PWs)   bands (ev):

    -6.7282  -6.7274  -4.8803  -4.8743  -4.3331  -4.3277   1.0614   1.1341
     1.3302   1.4394   2.3969   2.5949   2.8990   3.0204   3.9217   4.0106
     4.1661   4.2066   7.6811   7.7182   8.0324   8.0459   9.1537   9.1634
     9.8148   9.8316

     occupation numbers 
     1.0000   1.0000   1.0000   1.0000   1.0000   1.0000   1.0000   1.0000
     1.0000   1.0000   1.0000   1.0000   1.0000   1.0000   1.0000   1.0000
     1.0000   1.0000   0.0000   0.0000   0.0000   0.0000   0.0000   0.0000
     0.0000   0.0000

          k = 0.1667-0.4811 0.1256 (  4124 PWs)   bands (ev):

    -6.6557  -6.6522  -5.0956  -5.0908  -4.2170  -4.2081   0.9844   1.0356
     1.3814   1.4554   2.3553   2.5206   2.7664   3.1427   3.5957   3.7892
     5.0386   5.1026   7.0914   7.1503   8.1529   8.2046   9.2084   9.2318
    10.0695  10.1247

     occupation numbers 
     1.0000   1.0000   1.0000   1.0000   1.0000   1.0000   1.0000   1.0000
     1.0000   1.0000   1.0000   1.0000   1.0000   1.0000   1.0000   1.0000
     1.0000   1.0000   0.0000   0.0000   0.0000   0.0000   0.0000   0.0000
     0.0000   0.0000

          k = 0.1667-0.4811 0.2512 (  4122 PWs)   bands (ev):

    -6.4353  -6.4292  -5.5543  -5.5471  -3.9882  -3.9805   0.7771   0.8505
     1.1686   1.2354   2.0108   2.0856   3.4876   3.6978   4.3864   4.5272
     5.2878   5.4193   6.8769   6.9071   8.0203   8.0873   8.5109   8.5524
    10.5448  10.5900

     occupation numbers 
     1.0000   1.0000   1.0000   1.0000   1.0000   1.0000   1.0000   1.0000
     1.0000   1.0000   1.0000   1.0000   1.0000   1.0000   1.0000   1.0000
     1.0000   1.0000   0.0000   0.0000   0.0000   0.0000   0.0000   0.0000
     0.0000   0.0000

          k = 0.1667-0.4811-0.3768 (  4114 PWs)   bands (ev):

    -6.1518  -6.1495  -5.9387  -5.9357  -3.8624  -3.8608   0.5156   0.5431
     1.4474   1.4761   1.5897   1.6716   4.2113   4.3144   4.6989   4.7385
     5.5088   5.5817   6.8147   6.9178   7.4935   7.5577   8.1189   8.1665
    10.7621  10.7970

     occupation numbers 
     1.0000   1.0000   1.0000   1.0000   1.0000   1.0000   1.0000   1.0000
     1.0000   1.0000   1.0000   1.0000   1.0000   1.0000   1.0000   1.0000
     1.0000   1.0000   0.0000   0.0000   0.0000   0.0000   0.0000   0.0000
     0.0000   0.0000

          k = 0.1667-0.2887 0.0000 (  4137 PWs)   bands (ev):

    -7.1858  -7.1852  -4.5757  -4.5656  -4.3143  -4.3058   1.2023   1.3169
     1.4645   1.5737   2.8123   2.9763   3.9847   4.1397   4.2728   4.3416
     4.7417   4.7901   7.4376   7.4743   7.5254   7.5612   7.8828   7.9003
    10.2141  10.2203

     occupation numbers 
     1.0000   1.0000   1.0000   1.0000   1.0000   1.0000   1.0000   1.0000
     1.0000   1.0000   1.0000   1.0000   1.0000   1.0000   1.0000   1.0000
     1.0000   1.0000   0.0000   0.0000   0.0000   0.0000   0.0000   0.0000
     0.0000   0.0000

          k = 0.1667-0.2887 0.1256 (  4137 PWs)   bands (ev):

    -7.0947  -7.0926  -5.1469  -5.1429  -3.8087  -3.8034   1.2079   1.2716
     1.6301   1.6900   2.7229   2.8604   3.5551   3.6490   4.3165   4.4343
     5.3616   5.4280   6.8134   6.8825   7.5756   7.6184   8.1835   8.2155
    10.1870  10.2174

     occupation numbers 
     1.0000   1.0000   1.0000   1.0000   1.0000   1.0000   1.0000   1.0000
     1.0000   1.0000   1.0000   1.0000   1.0000   1.0000   1.0000   1.0000
     1.0000   1.0000   0.0000   0.0000   0.0000   0.0000   0.0000   0.0000
     0.0000   0.0000

          k = 0.1667-0.2887 0.2512 (  4125 PWs)   bands (ev):

    -6.8250  -6.8212  -5.8096  -5.8044  -3.3707  -3.3649   1.2171   1.3100
     1.7220   1.8565   2.5615   2.6763   3.2567   3.4370   4.7681   4.8944
     5.1144   5.2313   6.7494   6.8033   7.5806   7.5919   8.3703   8.4242
    10.3718  10.3923

     occupation numbers 
     1.0000   1.0000   1.0000   1.0000   1.0000   1.0000   1.0000   1.0000
     1.0000   1.0000   1.0000   1.0000   1.0000   1.0000   1.0000   1.0000
     1.0000   1.0000   0.0000   0.0000   0.0000   0.0000   0.0000   0.0000
     0.0000   0.0000

          k = 0.1667-0.2887-0.3768 (  4140 PWs)   bands (ev):

    -6.4336  -6.4306  -6.3370  -6.3339  -3.2054  -3.2039   1.1957   1.2926
     2.0124   2.0242   2.1385   2.2408   3.8259   3.9863   4.3864   4.4202
     5.0755   5.1611   6.6612   6.7405   8.0367   8.0533   8.2435   8.2640
    10.5743  10.6148

     occupation numbers 
     1.0000   1.0000   1.0000   1.0000   1.0000   1.0000   1.0000   1.0000
     1.0000   1.0000   1.0000   1.0000   1.0000   1.0000   1.0000   1.0000
     1.0000   1.0000   0.0000   0.0000   0.0000   0.0000   0.0000   0.0000
     0.0000   0.0000

          k = 0.1667-0.0962 0.0000 (  4137 PWs)   bands (ev):

    -7.5102  -7.5099  -4.4410  -4.4353  -4.3241  -4.3200   1.7039   1.8001
     2.2613   2.4112   2.7528   2.9894   4.4910   4.6612   4.8716   4.9583
     5.1464   5.2590   6.6894   6.7696   6.9281   7.0124   7.4852   7.5859
    10.3511  10.3912

     occupation numbers 
     1.0000   1.0000   1.0000   1.0000   1.0000   1.0000   1.0000   1.0000
     1.0000   1.0000   1.0000   1.0000   1.0000   1.0000   1.0000   1.0000
     1.0000   1.0000   0.0000   0.0000   0.0000   0.0000   0.0000   0.0000
     0.0000   0.0000

          k = 0.1667-0.0962 0.1256 (  4152 PWs)   bands (ev):

    -7.4115  -7.4101  -5.2488  -5.2456  -3.5164  -3.5137   1.7980   1.8719
     1.9648   2.0972   2.8499   3.0388   4.5967   4.7281   4.9051   5.1008
     5.2936   5.3873   6.5413   6.5700   6.7159   6.8544   7.3553   7.4157
     9.9483   9.9571

     occupation numbers 
     1.0000   1.0000   1.0000   1.0000   1.0000   1.0000   1.0000   1.0000
     1.0000   1.0000   1.0000   1.0000   1.0000   1.0000   1.0000   1.0000
     1.0000   1.0000   0.0000   0.0000   0.0000   0.0000   0.0000   0.0000
     0.0000   0.0000

          k = 0.1667-0.0962 0.2512 (  4146 PWs)   bands (ev):

    -7.1196  -7.1169  -6.0165  -6.0125  -2.8623  -2.8580   1.6587   1.7523
     2.1382   2.3141   2.9521   3.1329   4.4011   4.4727   4.6134   4.7153
     4.8788   4.9782   6.5872   6.6978   6.9104   7.0643   7.6249   7.6380
     9.9758  10.0020

     occupation numbers 
     1.0000   1.0000   1.0000   1.0000   1.0000   1.0000   1.0000   1.0000
     1.0000   1.0000   1.0000   1.0000   1.0000   1.0000   1.0000   1.0000
     1.0000   1.0000   0.0000   0.0000   0.0000   0.0000   0.0000   0.0000
     0.0000   0.0000

          k = 0.1667-0.0962-0.3768 (  4132 PWs)   bands (ev):

    -6.6663  -6.6645  -6.6276  -6.6262  -2.6235  -2.6228   1.6288   1.7101
     2.5931   2.8357   2.9064   3.0758   3.8796   4.1072   4.2082   4.3604
     4.5593   4.7575   6.7179   6.8621   7.2818   7.4179   7.8213   7.8268
    10.3978  10.4194

     occupation numbers 
     1.0000   1.0000   1.0000   1.0000   1.0000   1.0000   1.0000   1.0000
     1.0000   1.0000   1.0000   1.0000   1.0000   1.0000   1.0000   1.0000
     1.0000   1.0000   0.0000   0.0000   0.0000   0.0000   0.0000   0.0000
     0.0000   0.0000

          k = 0.3333 0.1925 0.0000 (  4136 PWs)   bands (ev):

    -7.0484  -7.0478  -4.7501  -4.7447  -4.2095  -4.2056   1.0140   1.0704
     1.5849   1.7482   2.2813   2.4969   3.4754   3.5509   4.7779   4.9283
     5.0128   5.1592   6.8069   6.9120   7.0382   7.0771   8.7048   8.7214
     9.3393   9.3681

     occupation numbers 
     1.0000   1.0000   1.0000   1.0000   1.0000   1.0000   1.0000   1.0000
     1.0000   1.0000   1.0000   1.0000   1.0000   1.0000   1.0000   1.0000
     1.0000   1.0000   0.0000   0.0000   0.0000   0.0000   0.0000   0.0000
     0.0000   0.0000

          k = 0.3333 0.1925 0.1256 (  4128 PWs)   bands (ev):

    -6.9698  -6.9674  -5.0643  -5.0605  -4.0289  -4.0228   1.2851   1.3992
     1.7707   1.8914   2.5011   2.7354   2.7601   2.9887   4.3080   4.5592
     4.7507   4.9142   6.9327   7.0326   7.6218   7.8563   9.1057   9.1184
     9.9231  10.0354

     occupation numbers 
     1.0000   1.0000   1.0000   1.0000   1.0000   1.0000   1.0000   1.0000
     1.0000   1.0000   1.0000   1.0000   1.0000   1.0000   1.0000   1.0000
     1.0000   1.0000   0.0000   0.0000   0.0000   0.0000   0.0000   0.0000
     0.0000   0.0000

          k = 0.3333 0.1925 0.2512 (  4133 PWs)   bands (ev):

    -6.7230  -6.7189  -5.6799  -5.6746  -3.6608  -3.6548   1.1594   1.2337
     1.9139   2.0723   2.5091   2.6515   3.2578   3.6187   3.8674   4.0286
     4.3620   4.5839   7.3400   7.3938   8.1672   8.3250   8.8004   8.8145
    10.5495  10.6596

     occupation numbers 
     1.0000   1.0000   1.0000   1.0000   1.0000   1.0000   1.0000   1.0000
     1.0000   1.0000   1.0000   1.0000   1.0000   1.0000   1.0000   1.0000
     1.0000   1.0000   0.0000   0.0000   0.0000   0.0000   0.0000   0.0000
     0.0000   0.0000

          k = 0.3333 0.1925-0.3768 (  4118 PWs)   bands (ev):

    -6.3708  -6.3689  -6.1863  -6.1843  -3.4432  -3.4416   0.7833   0.8247
     2.0843   2.2085   2.4390   2.5534   3.6630   3.7282   3.9582   4.0355
     4.9114   5.0074   7.1640   7.3659   7.8294   7.9388   8.2161   8.4263
    10.4172  10.5636

     occupation numbers 
     1.0000   1.0000   1.0000   1.0000   1.0000   1.0000   1.0000   1.0000
     1.0000   1.0000   1.0000   1.0000   1.0000   1.0000   1.0000   1.0000
     1.0000   1.0000   0.0000   0.0000   0.0000   0.0000   0.0000   0.0000
     0.0000   0.0000

          k = 0.3333 0.3849 0.0000 (  4133 PWs)   bands (ev):

    -6.7281  -6.7274  -4.8803  -4.8743  -4.3331  -4.3277   1.0614   1.1341
     1.3302   1.4394   2.3969   2.5949   2.8990   3.0204   3.9216   4.0105
     4.1661   4.2066   7.6810   7.7181   8.0323   8.0458   9.1537   9.1634
     9.8148   9.8315

     occupation numbers 
     1.0000   1.0000   1.0000   1.0000   1.0000   1.0000   1.0000   1.0000
     1.0000   1.0000   1.0000   1.0000   1.0000   1.0000   1.0000   1.0000
     1.0000   1.0000   0.0000   0.0000   0.0000   0.0000   0.0000   0.0000
     0.0000   0.0000

          k = 0.3333 0.3849 0.1256 (  4124 PWs)   bands (ev):

    -6.6557  -6.6521  -5.0956  -5.0908  -4.2170  -4.2081   0.9844   1.0356
     1.3814   1.4554   2.3553   2.5206   2.7664   3.1427   3.5957   3.7891
     5.0385   5.1026   7.0913   7.1502   8.1528   8.2044   9.2085   9.2319
    10.0694  10.1246

     occupation numbers 
     1.0000   1.0000   1.0000   1.0000   1.0000   1.0000   1.0000   1.0000
     1.0000   1.0000   1.0000   1.0000   1.0000   1.0000   1.0000   1.0000
     1.0000   1.0000   0.0000   0.0000   0.0000   0.0000   0.0000   0.0000
     0.0000   0.0000

          k = 0.3333 0.3849 0.2512 (  4122 PWs)   bands (ev):

    -6.4353  -6.4292  -5.5543  -5.5471  -3.9882  -3.9805   0.7771   0.8505
     1.1686   1.2354   2.0108   2.0856   3.4876   3.6978   4.3863   4.5271
     5.2878   5.4193   6.8769   6.9070   8.0202   8.0872   8.5110   8.5525
    10.5448  10.5900

     occupation numbers 
     1.0000   1.0000   1.0000   1.0000   1.0000   1.0000   1.0000   1.0000
     1.0000   1.0000   1.0000   1.0000   1.0000   1.0000   1.0000   1.0000
     1.0000   1.0000   0.0000   0.0000   0.0000   0.0000   0.0000   0.0000
     0.0000   0.0000

          k = 0.3333 0.3849-0.3768 (  4114 PWs)   bands (ev):

    -6.1518  -6.1495  -5.9387  -5.9358  -3.8624  -3.8608   0.5155   0.5431
     1.4473   1.4760   1.5897   1.6716   4.2113   4.3144   4.6989   4.7384
     5.5087   5.5817   6.8147   6.9178   7.4935   7.5577   8.1189   8.1665
    10.7619  10.7969

     occupation numbers 
     1.0000   1.0000   1.0000   1.0000   1.0000   1.0000   1.0000   1.0000
     1.0000   1.0000   1.0000   1.0000   1.0000   1.0000   1.0000   1.0000
     1.0000   1.0000   0.0000   0.0000   0.0000   0.0000   0.0000   0.0000
     0.0000   0.0000

          k = 0.3333 0.5773 0.0000 (  4134 PWs)   bands (ev):

    -6.5362  -6.5362  -4.7057  -4.7027  -4.7027  -4.6912   1.2013   1.3892
     1.3892   1.4027   2.7235   2.7235   2.8216   3.0175   3.0175   3.0519
     3.4099   3.4099   8.6630   8.7044   8.8692   8.8692   9.1127   9.1127
    10.8033  10.8033

     occupation numbers 
     1.0000   1.0000   1.0000   1.0000   1.0000   1.0000   1.0000   1.0000
     1.0000   1.0000   1.0000   1.0000   1.0000   1.0000   1.0000   1.0000
     1.0000   1.0000   0.0000   0.0000   0.0000   0.0000   0.0000   0.0000
     0.0000   0.0000

          k = 0.3333 0.5773 0.1256 (  4140 PWs)   bands (ev):

    -6.4641  -6.4595  -5.0950  -5.0914  -4.3741  -4.3641   0.9064   0.9203
     1.2832   1.4495   2.0924   2.2006   2.8166   3.0012   3.8133   3.8544
     4.1951   4.3894   8.1403   8.2962   8.5988   8.7166   8.7279   8.7571
    10.9987  11.0464

     occupation numbers 
     1.0000   1.0000   1.0000   1.0000   1.0000   1.0000   1.0000   1.0000
     1.0000   1.0000   1.0000   1.0000   1.0000   1.0000   1.0000   1.0000
     1.0000   1.0000   0.0000   0.0000   0.0000   0.0000   0.0000   0.0000
     0.0000   0.0000

          k = 0.3333 0.5773 0.2512 (  4146 PWs)   bands (ev):

    -6.2509  -6.2425  -5.5189  -5.5099  -4.1380  -4.1293   0.7197   0.7732
     0.8847   0.9442   1.3625   1.4738   3.8564   3.9892   4.8932   5.0465
     5.2379   5.5300   7.0326   7.1470   7.8352   7.9290   8.0414   8.0689
    11.6324  11.6414

     occupation numbers 
     1.0000   1.0000   1.0000   1.0000   1.0000   1.0000   1.0000   1.0000
     1.0000   1.0000   1.0000   1.0000   1.0000   1.0000   1.0000   1.0000
     1.0000   1.0000   0.0000   0.0000   0.0000   0.0000   0.0000   0.0000
     0.0000   0.0000

          k = 0.3333 0.5773-0.3768 (  4116 PWs)   bands (ev):

    -5.9218  -5.9218  -5.9150  -5.9079  -4.0451  -4.0451   0.7082   0.7082
     0.8578   0.9110   0.9839   0.9839   4.7821   4.7821   5.7411   5.7411
     5.9887   6.1162   6.1163   6.1289   7.2573   7.3235   7.4886   7.4886
    11.8309  11.8309

     occupation numbers 
     1.0000   1.0000   1.0000   1.0000   1.0000   1.0000   1.0000   1.0000
     1.0000   1.0000   1.0000   1.0000   1.0000   1.0000   0.9999   0.9999
     0.8558   0.3961   0.3961   0.3464   0.0000   0.0000   0.0000   0.0000
     0.0000   0.0000

          k = 0.3333-0.3849 0.0000 (  4133 PWs)   bands (ev):

    -6.7282  -6.7274  -4.8803  -4.8743  -4.3331  -4.3277   1.0614   1.1341
     1.3302   1.4394   2.3969   2.5949   2.8990   3.0204   3.9217   4.0106
     4.1661   4.2066   7.6811   7.7182   8.0324   8.0458   9.1537   9.1634
     9.8148   9.8316

     occupation numbers 
     1.0000   1.0000   1.0000   1.0000   1.0000   1.0000   1.0000   1.0000
     1.0000   1.0000   1.0000   1.0000   1.0000   1.0000   1.0000   1.0000
     1.0000   1.0000   0.0000   0.0000   0.0000   0.0000   0.0000   0.0000
     0.0000   0.0000

          k = 0.3333-0.3849 0.1256 (  4124 PWs)   bands (ev):

    -6.6448  -6.6411  -5.1806  -5.1755  -4.1055  -4.0969   0.7943   0.8271
     1.2920   1.3943   2.3195   2.4510   3.1252   3.2937   3.9955   4.1290
     4.8092   4.9314   7.2356   7.2993   8.2624   8.2937   8.4137   8.4815
     9.9569  10.0110

     occupation numbers 
     1.0000   1.0000   1.0000   1.0000   1.0000   1.0000   1.0000   1.0000
     1.0000   1.0000   1.0000   1.0000   1.0000   1.0000   1.0000   1.0000
     1.0000   1.0000   0.0000   0.0000   0.0000   0.0000   0.0000   0.0000
     0.0000   0.0000

          k = 0.3333-0.3849 0.2512 (  4122 PWs)   bands (ev):

    -6.4121  -6.4052  -5.6205  -5.6124  -3.9075  -3.8998   0.5291   0.5718
     1.2693   1.3447   2.0546   2.1283   3.3748   3.5019   4.9204   5.1275
     5.4871   5.7417   6.6160   6.6771   7.3741   7.4444   8.4406   8.5511
    10.2812  10.3585

     occupation numbers 
     1.0000   1.0000   1.0000   1.0000   1.0000   1.0000   1.0000   1.0000
     1.0000   1.0000   1.0000   1.0000   1.0000   1.0000   1.0000   1.0000
     1.0000   0.9999   0.0000   0.0000   0.0000   0.0000   0.0000   0.0000
     0.0000   0.0000

          k = 0.3333-0.3849-0.3768 (  4114 PWs)   bands (ev):

    -6.1519  -6.1496  -5.9387  -5.9357  -3.8624  -3.8608   0.5156   0.5431
     1.4474   1.4760   1.5897   1.6716   4.2113   4.3144   4.6989   4.7384
     5.5088   5.5817   6.8147   6.9178   7.4935   7.5577   8.1189   8.1665
    10.7620  10.7970

     occupation numbers 
     1.0000   1.0000   1.0000   1.0000   1.0000   1.0000   1.0000   1.0000
     1.0000   1.0000   1.0000   1.0000   1.0000   1.0000   1.0000   1.0000
     1.0000   1.0000   0.0000   0.0000   0.0000   0.0000   0.0000   0.0000
     0.0000   0.0000

          k = 0.3333-0.1924 0.0000 (  4136 PWs)   bands (ev):

    -7.0485  -7.0478  -4.7501  -4.7447  -4.2094  -4.2056   1.0141   1.0704
     1.5849   1.7483   2.2814   2.4969   3.4754   3.5508   4.7780   4.9283
     5.0129   5.1592   6.8070   6.9121   7.0383   7.0772   8.7048   8.7213
     9.3393   9.3681

     occupation numbers 
     1.0000   1.0000   1.0000   1.0000   1.0000   1.0000   1.0000   1.0000
     1.0000   1.0000   1.0000   1.0000   1.0000   1.0000   1.0000   1.0000
     1.0000   1.0000   0.0000   0.0000   0.0000   0.0000   0.0000   0.0000
     0.0000   0.0000

          k = 0.3333-0.1924 0.1256 (  4128 PWs)   bands (ev):

    -6.9524  -6.9499  -5.2241  -5.2197  -3.7784  -3.7721   0.8587   0.8869
     1.3457   1.4455   2.3986   2.5374   4.1841   4.4379   4.6598   4.9334
     4.9510   5.1548   6.7388   6.7982   7.2203   7.3239   7.8341   7.8613
     9.2705   9.3304

     occupation numbers 
     1.0000   1.0000   1.0000   1.0000   1.0000   1.0000   1.0000   1.0000
     1.0000   1.0000   1.0000   1.0000   1.0000   1.0000   1.0000   1.0000
     1.0000   1.0000   0.0000   0.0000   0.0000   0.0000   0.0000   0.0000
     0.0000   0.0000

          k = 0.3333-0.1924 0.2512 (  4133 PWs)   bands (ev):

    -6.6852  -6.6804  -5.7909  -5.7846  -3.4762  -3.4700   0.6930   0.7373
     1.5839   1.7019   2.5432   2.6576   3.9113   4.0742   4.2951   4.3983
     5.7174   5.7705   6.6107   6.6825   7.2522   7.3846   7.7291   8.0663
     9.7474   9.8815

     occupation numbers 
     1.0000   1.0000   1.0000   1.0000   1.0000   1.0000   1.0000   1.0000
     1.0000   1.0000   1.0000   1.0000   1.0000   1.0000   1.0000   1.0000
     0.9999   0.9996   0.0000   0.0000   0.0000   0.0000   0.0000   0.0000
     0.0000   0.0000

          k = 0.3333-0.1924-0.3768 (  4118 PWs)   bands (ev):

    -6.3709  -6.3690  -6.1863  -6.1842  -3.4431  -3.4416   0.7833   0.8247
     2.0843   2.2086   2.4391   2.5535   3.6630   3.7282   3.9582   4.0355
     4.9114   5.0074   7.1641   7.3659   7.8294   7.9387   8.2161   8.4264
    10.4172  10.5636

     occupation numbers 
     1.0000   1.0000   1.0000   1.0000   1.0000   1.0000   1.0000   1.0000
     1.0000   1.0000   1.0000   1.0000   1.0000   1.0000   1.0000   1.0000
     1.0000   1.0000   0.0000   0.0000   0.0000   0.0000   0.0000   0.0000
     0.0000   0.0000

          k = 0.3333 0.0000 0.0000 (  4137 PWs)   bands (ev):

    -7.1858  -7.1852  -4.5757  -4.5656  -4.3143  -4.3059   1.2022   1.3169
     1.4645   1.5736   2.8123   2.9763   3.9847   4.1397   4.2728   4.3416
     4.7417   4.7901   7.4375   7.4743   7.5254   7.5612   7.8828   7.9002
    10.2143  10.2205

     occupation numbers 
     1.0000   1.0000   1.0000   1.0000   1.0000   1.0000   1.0000   1.0000
     1.0000   1.0000   1.0000   1.0000   1.0000   1.0000   1.0000   1.0000
     1.0000   1.0000   0.0000   0.0000   0.0000   0.0000   0.0000   0.0000
     0.0000   0.0000

          k = 0.3333 0.0000 0.1256 (  4137 PWs)   bands (ev):

    -7.0947  -7.0926  -5.1469  -5.1429  -3.8087  -3.8034   1.2079   1.2716
     1.6301   1.6900   2.7229   2.8604   3.5552   3.6490   4.3165   4.4342
     5.3616   5.4280   6.8134   6.8825   7.5755   7.6183   8.1835   8.2156
    10.1869  10.2170

     occupation numbers 
     1.0000   1.0000   1.0000   1.0000   1.0000   1.0000   1.0000   1.0000
     1.0000   1.0000   1.0000   1.0000   1.0000   1.0000   1.0000   1.0000
     1.0000   1.0000   0.0000   0.0000   0.0000   0.0000   0.0000   0.0000
     0.0000   0.0000

          k = 0.3333 0.0000 0.2512 (  4125 PWs)   bands (ev):

    -6.8250  -6.8211  -5.8096  -5.8044  -3.3707  -3.3649   1.2170   1.3100
     1.7220   1.8565   2.5615   2.6764   3.2566   3.4370   4.7680   4.8943
     5.1144   5.2313   6.7494   6.8033   7.5805   7.5919   8.3704   8.4243
    10.3718  10.3923

     occupation numbers 
     1.0000   1.0000   1.0000   1.0000   1.0000   1.0000   1.0000   1.0000
     1.0000   1.0000   1.0000   1.0000   1.0000   1.0000   1.0000   1.0000
     1.0000   1.0000   0.0000   0.0000   0.0000   0.0000   0.0000   0.0000
     0.0000   0.0000

          k = 0.3333 0.0000-0.3768 (  4140 PWs)   bands (ev):

    -6.4336  -6.4306  -6.3370  -6.3339  -3.2054  -3.2039   1.1957   1.2926
     2.0124   2.0242   2.1386   2.2409   3.8259   3.9863   4.3863   4.4202
     5.0755   5.1610   6.6611   6.7405   8.0368   8.0534   8.2436   8.2641
    10.5743  10.6142

     occupation numbers 
     1.0000   1.0000   1.0000   1.0000   1.0000   1.0000   1.0000   1.0000
     1.0000   1.0000   1.0000   1.0000   1.0000   1.0000   1.0000   1.0000
     1.0000   1.0000   0.0000   0.0000   0.0000   0.0000   0.0000   0.0000
     0.0000   0.0000

          k =-0.5000-0.2887 0.0000 (  4098 PWs)   bands (ev):

    -6.7024  -6.7024  -5.0607  -5.0607  -4.1438  -4.1438   0.9919   0.9919
     1.4816   1.4816   2.3134   2.3134   2.5223   2.5223   4.7711   4.7711
     5.0539   5.0539   6.8605   6.8605   6.9773   6.9773   8.9644   8.9644
     9.6520   9.6520

     occupation numbers 
     1.0000   1.0000   1.0000   1.0000   1.0000   1.0000   1.0000   1.0000
     1.0000   1.0000   1.0000   1.0000   1.0000   1.0000   1.0000   1.0000
     1.0000   1.0000   0.0000   0.0000   0.0000   0.0000   0.0000   0.0000
     0.0000   0.0000

          k =-0.5000-0.2887 0.1256 (  4108 PWs)   bands (ev):

    -6.6282  -6.6244  -5.2229  -5.2187  -4.0906  -4.0827   0.9470   0.9866
     1.1534   1.2640   2.2384   2.3965   3.1509   3.3313   4.4073   4.5758
     4.7263   4.8106   6.8547   6.8979   7.4338   7.6537   9.1068   9.1262
     9.3140   9.4260

     occupation numbers 
     1.0000   1.0000   1.0000   1.0000   1.0000   1.0000   1.0000   1.0000
     1.0000   1.0000   1.0000   1.0000   1.0000   1.0000   1.0000   1.0000
     1.0000   1.0000   0.0000   0.0000   0.0000   0.0000   0.0000   0.0000
     0.0000   0.0000

          k =-0.5000-0.2887 0.2512 (  4102 PWs)   bands (ev):

    -6.4166  -6.4100  -5.5792  -5.5715  -3.9948  -3.9878   0.4342   0.4646
     1.5905   1.6987   2.3483   2.4621   3.5693   3.8469   4.0270   4.2224
     4.7190   4.9116   7.2089   7.3010   7.8239   7.9012   8.2023   8.5318
    10.0399  10.2537

     occupation numbers 
     1.0000   1.0000   1.0000   1.0000   1.0000   1.0000   1.0000   1.0000
     1.0000   1.0000   1.0000   1.0000   1.0000   1.0000   1.0000   1.0000
     1.0000   1.0000   0.0000   0.0000   0.0000   0.0000   0.0000   0.0000
     0.0000   0.0000

          k =-0.5000-0.2887-0.3768 (  4128 PWs)   bands (ev):

    -6.1999  -6.1999  -5.8511  -5.8511  -3.9483  -3.9483   0.2498   0.2498
     2.1111   2.1111   2.2390   2.2390   3.5262   3.5262   3.8888   3.8888
     5.7410   5.7410   6.7050   6.7050   7.7412   7.7412   8.5889   8.5889
    10.5155  10.5155

     occupation numbers 
     1.0000   1.0000   1.0000   1.0000   1.0000   1.0000   1.0000   1.0000
     1.0000   1.0000   1.0000   1.0000   1.0000   1.0000   1.0000   1.0000
     0.9999   0.9999   0.0000   0.0000   0.0000   0.0000   0.0000   0.0000
     0.0000   0.0000

          k =-0.5000-0.0962 0.0000 (  4133 PWs)   bands (ev):

    -6.7281  -6.7274  -4.8803  -4.8743  -4.3331  -4.3277   1.0614   1.1341
     1.3302   1.4394   2.3969   2.5948   2.8990   3.0204   3.9216   4.0105
     4.1661   4.2066   7.6810   7.7181   8.0323   8.0457   9.1537   9.1634
     9.8148   9.8315

     occupation numbers 
     1.0000   1.0000   1.0000   1.0000   1.0000   1.0000   1.0000   1.0000
     1.0000   1.0000   1.0000   1.0000   1.0000   1.0000   1.0000   1.0000
     1.0000   1.0000   0.0000   0.0000   0.0000   0.0000   0.0000   0.0000
     0.0000   0.0000

          k =-0.5000-0.0962 0.1256 (  4124 PWs)   bands (ev):

    -6.6448  -6.6411  -5.1806  -5.1754  -4.1056  -4.0969   0.7942   0.8271
     1.2920   1.3944   2.3194   2.4509   3.1251   3.2936   3.9956   4.1290
     4.8092   4.9314   7.2355   7.2992   8.2624   8.2937   8.4137   8.4815
     9.9568  10.0110

     occupation numbers 
     1.0000   1.0000   1.0000   1.0000   1.0000   1.0000   1.0000   1.0000
     1.0000   1.0000   1.0000   1.0000   1.0000   1.0000   1.0000   1.0000
     1.0000   1.0000   0.0000   0.0000   0.0000   0.0000   0.0000   0.0000
     0.0000   0.0000

          k =-0.5000-0.0962 0.2512 (  4122 PWs)   bands (ev):

    -6.4120  -6.4052  -5.6205  -5.6123  -3.9075  -3.8998   0.5290   0.5717
     1.2693   1.3447   2.0546   2.1282   3.3748   3.5019   4.9203   5.1274
     5.4871   5.7417   6.6159   6.6770   7.3741   7.4444   8.4406   8.5511
    10.2812  10.3584

     occupation numbers 
     1.0000   1.0000   1.0000   1.0000   1.0000   1.0000   1.0000   1.0000
     1.0000   1.0000   1.0000   1.0000   1.0000   1.0000   1.0000   1.0000
     1.0000   0.9999   0.0000   0.0000   0.0000   0.0000   0.0000   0.0000
     0.0000   0.0000

          k =-0.5000-0.0962-0.3768 (  4114 PWs)   bands (ev):

    -6.1518  -6.1495  -5.9387  -5.9357  -3.8624  -3.8608   0.5155   0.5431
     1.4473   1.4760   1.5897   1.6716   4.2112   4.3143   4.6989   4.7384
     5.5087   5.5817   6.8147   6.9178   7.4935   7.5577   8.1189   8.1665
    10.7619  10.7970

     occupation numbers 
     1.0000   1.0000   1.0000   1.0000   1.0000   1.0000   1.0000   1.0000
     1.0000   1.0000   1.0000   1.0000   1.0000   1.0000   1.0000   1.0000
     1.0000   1.0000   0.0000   0.0000   0.0000   0.0000   0.0000   0.0000
     0.0000   0.0000

          k =-0.5000 0.0962 0.0000 (  4133 PWs)   bands (ev):

    -6.7281  -6.7274  -4.8803  -4.8743  -4.3331  -4.3277   1.0614   1.1341
     1.3302   1.4394   2.3969   2.5949   2.8990   3.0204   3.9217   4.0106
     4.1662   4.2066   7.6810   7.7182   8.0324   8.0458   9.1536   9.1633
     9.8148   9.8316

     occupation numbers 
     1.0000   1.0000   1.0000   1.0000   1.0000   1.0000   1.0000   1.0000
     1.0000   1.0000   1.0000   1.0000   1.0000   1.0000   1.0000   1.0000
     1.0000   1.0000   0.0000   0.0000   0.0000   0.0000   0.0000   0.0000
     0.0000   0.0000

          k =-0.5000 0.0962 0.1256 (  4124 PWs)   bands (ev):

    -6.6557  -6.6522  -5.0956  -5.0908  -4.2170  -4.2081   0.9843   1.0356
     1.3814   1.4554   2.3553   2.5206   2.7664   3.1427   3.5958   3.7892
     5.0386   5.1026   7.0914   7.1503   8.1528   8.2045   9.2084   9.2318
    10.0694  10.1247

     occupation numbers 
     1.0000   1.0000   1.0000   1.0000   1.0000   1.0000   1.0000   1.0000
     1.0000   1.0000   1.0000   1.0000   1.0000   1.0000   1.0000   1.0000
     1.0000   1.0000   0.0000   0.0000   0.0000   0.0000   0.0000   0.0000
     0.0000   0.0000

          k =-0.5000 0.0962 0.2512 (  4122 PWs)   bands (ev):

    -6.4353  -6.4292  -5.5543  -5.5471  -3.9882  -3.9805   0.7771   0.8505
     1.1686   1.2354   2.0109   2.0856   3.4876   3.6978   4.3863   4.5272
     5.2878   5.4193   6.8769   6.9071   8.0202   8.0872   8.5109   8.5524
    10.5448  10.5899

     occupation numbers 
     1.0000   1.0000   1.0000   1.0000   1.0000   1.0000   1.0000   1.0000
     1.0000   1.0000   1.0000   1.0000   1.0000   1.0000   1.0000   1.0000
     1.0000   1.0000   0.0000   0.0000   0.0000   0.0000   0.0000   0.0000
     0.0000   0.0000

          k =-0.5000 0.0962-0.3768 (  4114 PWs)   bands (ev):

    -6.1519  -6.1496  -5.9387  -5.9357  -3.8624  -3.8608   0.5155   0.5431
     1.4473   1.4760   1.5897   1.6717   4.2113   4.3144   4.6989   4.7384
     5.5087   5.5817   6.8147   6.9178   7.4935   7.5577   8.1189   8.1665
    10.7620  10.7969

     occupation numbers 
     1.0000   1.0000   1.0000   1.0000   1.0000   1.0000   1.0000   1.0000
     1.0000   1.0000   1.0000   1.0000   1.0000   1.0000   1.0000   1.0000
     1.0000   1.0000   0.0000   0.0000   0.0000   0.0000   0.0000   0.0000
     0.0000   0.0000

          k =-0.5000-0.8660 0.0000 (  4098 PWs)   bands (ev):

    -6.7024  -6.7024  -5.0607  -5.0607  -4.1437  -4.1437   0.9919   0.9919
     1.4817   1.4817   2.3134   2.3134   2.5223   2.5223   4.7711   4.7711
     5.0539   5.0539   6.8605   6.8605   6.9774   6.9774   8.9644   8.9644
     9.6519   9.6519

     occupation numbers 
     1.0000   1.0000   1.0000   1.0000   1.0000   1.0000   1.0000   1.0000
     1.0000   1.0000   1.0000   1.0000   1.0000   1.0000   1.0000   1.0000
     1.0000   1.0000   0.0000   0.0000   0.0000   0.0000   0.0000   0.0000
     0.0000   0.0000

          k =-0.5000-0.8660 0.1256 (  4108 PWs)   bands (ev):

    -6.6282  -6.6245  -5.2229  -5.2187  -4.0906  -4.0826   0.9471   0.9866
     1.1534   1.2640   2.2384   2.3965   3.1509   3.3313   4.4073   4.5759
     4.7263   4.8106   6.8548   6.8979   7.4339   7.6538   9.1068   9.1262
     9.3140   9.4261

     occupation numbers 
     1.0000   1.0000   1.0000   1.0000   1.0000   1.0000   1.0000   1.0000
     1.0000   1.0000   1.0000   1.0000   1.0000   1.0000   1.0000   1.0000
     1.0000   1.0000   0.0000   0.0000   0.0000   0.0000   0.0000   0.0000
     0.0000   0.0000

          k =-0.5000-0.8660 0.2512 (  4102 PWs)   bands (ev):

    -6.4166  -6.4101  -5.5791  -5.5715  -3.9948  -3.9878   0.4342   0.4646
     1.5905   1.6987   2.3484   2.4621   3.5694   3.8470   4.0271   4.2224
     4.7190   4.9116   7.2089   7.3010   7.8239   7.9012   8.2023   8.5319
    10.0400  10.2538

     occupation numbers 
     1.0000   1.0000   1.0000   1.0000   1.0000   1.0000   1.0000   1.0000
     1.0000   1.0000   1.0000   1.0000   1.0000   1.0000   1.0000   1.0000
     1.0000   1.0000   0.0000   0.0000   0.0000   0.0000   0.0000   0.0000
     0.0000   0.0000

          k =-0.5000-0.8660-0.3768 (  4128 PWs)   bands (ev):

    -6.2000  -6.2000  -5.8511  -5.8511  -3.9483  -3.9483   0.2499   0.2499
     2.1112   2.1112   2.2390   2.2390   3.5262   3.5262   3.8889   3.8889
     5.7410   5.7410   6.7050   6.7050   7.7412   7.7412   8.5889   8.5889
    10.5155  10.5155

     occupation numbers 
     1.0000   1.0000   1.0000   1.0000   1.0000   1.0000   1.0000   1.0000
     1.0000   1.0000   1.0000   1.0000   1.0000   1.0000   1.0000   1.0000
     0.9999   0.9999   0.0000   0.0000   0.0000   0.0000   0.0000   0.0000
     0.0000   0.0000

          k = 0.0000-0.1924 0.1256 (  4152 PWs)   bands (ev):

    -7.4141  -7.4127  -5.2212  -5.2180  -3.5730  -3.5703   1.7708   1.8590
     2.4794   2.6744   2.7550   3.1143   4.2011   4.2542   4.3457   4.5216
     4.7671   4.9541   6.9349   7.0330   7.3216   7.4460   7.7267   7.8242
    10.6360  10.6766

     occupation numbers 
     1.0000   1.0000   1.0000   1.0000   1.0000   1.0000   1.0000   1.0000
     1.0000   1.0000   1.0000   1.0000   1.0000   1.0000   1.0000   1.0000
     1.0000   1.0000   0.0000   0.0000   0.0000   0.0000   0.0000   0.0000
     0.0000   0.0000

          k = 0.0000-0.1924 0.2512 (  4146 PWs)   bands (ev):

    -7.1254  -7.1228  -5.9992  -5.9954  -2.9124  -2.9080   1.7841   1.8532
     2.6023   2.7644   3.0141   3.2585   3.6934   3.9153   4.1210   4.2083
     4.5896   4.7398   6.9559   6.9988   7.5821   7.6751   7.7367   7.8036
    10.5801  10.5984

     occupation numbers 
     1.0000   1.0000   1.0000   1.0000   1.0000   1.0000   1.0000   1.0000
     1.0000   1.0000   1.0000   1.0000   1.0000   1.0000   1.0000   1.0000
     1.0000   1.0000   0.0000   0.0000   0.0000   0.0000   0.0000   0.0000
     0.0000   0.0000

          k = 0.0000-0.3849 0.1256 (  4128 PWs)   bands (ev):

    -6.9698  -6.9674  -5.0643  -5.0605  -4.0289  -4.0228   1.2851   1.3992
     1.7707   1.8915   2.5012   2.7355   2.7601   2.9887   4.3080   4.5593
     4.7507   4.9142   6.9327   7.0327   7.6219   7.8564   9.1056   9.1183
     9.9231  10.0354

     occupation numbers 
     1.0000   1.0000   1.0000   1.0000   1.0000   1.0000   1.0000   1.0000
     1.0000   1.0000   1.0000   1.0000   1.0000   1.0000   1.0000   1.0000
     1.0000   1.0000   0.0000   0.0000   0.0000   0.0000   0.0000   0.0000
     0.0000   0.0000

          k = 0.0000-0.3849 0.2512 (  4133 PWs)   bands (ev):

    -6.7230  -6.7190  -5.6799  -5.6746  -3.6609  -3.6548   1.1594   1.2337
     1.9140   2.0724   2.5092   2.6516   3.2578   3.6187   3.8674   4.0286
     4.3621   4.5840   7.3400   7.3938   8.1673   8.3250   8.8003   8.8144
    10.5496  10.6597

     occupation numbers 
     1.0000   1.0000   1.0000   1.0000   1.0000   1.0000   1.0000   1.0000
     1.0000   1.0000   1.0000   1.0000   1.0000   1.0000   1.0000   1.0000
     1.0000   1.0000   0.0000   0.0000   0.0000   0.0000   0.0000   0.0000
     0.0000   0.0000

          k =-0.1667-0.0962 0.1256 (  4152 PWs)   bands (ev):

    -7.4115  -7.4100  -5.2488  -5.2456  -3.5165  -3.5137   1.7980   1.8719
     1.9648   2.0973   2.8499   3.0388   4.5967   4.7281   4.9051   5.1007
     5.2937   5.3873   6.5413   6.5699   6.7159   6.8544   7.3554   7.4158
     9.9484   9.9571

     occupation numbers 
     1.0000   1.0000   1.0000   1.0000   1.0000   1.0000   1.0000   1.0000
     1.0000   1.0000   1.0000   1.0000   1.0000   1.0000   1.0000   1.0000
     1.0000   1.0000   0.0000   0.0000   0.0000   0.0000   0.0000   0.0000
     0.0000   0.0000

          k =-0.1667-0.0962 0.2512 (  4146 PWs)   bands (ev):

    -7.1196  -7.1169  -6.0165  -6.0125  -2.8624  -2.8580   1.6587   1.7523
     2.1382   2.3141   2.9521   3.1329   4.4010   4.4726   4.6134   4.7152
     4.8788   4.9781   6.5871   6.6978   6.9103   7.0643   7.6251   7.6381
     9.9758  10.0020

     occupation numbers 
     1.0000   1.0000   1.0000   1.0000   1.0000   1.0000   1.0000   1.0000
     1.0000   1.0000   1.0000   1.0000   1.0000   1.0000   1.0000   1.0000
     1.0000   1.0000   0.0000   0.0000   0.0000   0.0000   0.0000   0.0000
     0.0000   0.0000

          k =-0.1667-0.2887 0.1256 (  4137 PWs)   bands (ev):

    -7.0947  -7.0926  -5.1468  -5.1429  -3.8087  -3.8035   1.2079   1.2716
     1.6302   1.6900   2.7229   2.8604   3.5551   3.6489   4.3165   4.4342
     5.3617   5.4281   6.8134   6.8825   7.5755   7.6183   8.1835   8.2155
    10.1870  10.2171

     occupation numbers 
     1.0000   1.0000   1.0000   1.0000   1.0000   1.0000   1.0000   1.0000
     1.0000   1.0000   1.0000   1.0000   1.0000   1.0000   1.0000   1.0000
     1.0000   1.0000   0.0000   0.0000   0.0000   0.0000   0.0000   0.0000
     0.0000   0.0000

          k =-0.1667-0.2887 0.2512 (  4125 PWs)   bands (ev):

    -6.8250  -6.8212  -5.8095  -5.8044  -3.3707  -3.3649   1.2171   1.3100
     1.7220   1.8566   2.5615   2.6763   3.2566   3.4370   4.7680   4.8943
     5.1144   5.2313   6.7494   6.8032   7.5806   7.5920   8.3703   8.4242
    10.3717  10.3923

     occupation numbers 
     1.0000   1.0000   1.0000   1.0000   1.0000   1.0000   1.0000   1.0000
     1.0000   1.0000   1.0000   1.0000   1.0000   1.0000   1.0000   1.0000
     1.0000   1.0000   0.0000   0.0000   0.0000   0.0000   0.0000   0.0000
     0.0000   0.0000

          k =-0.1667-0.4811 0.1256 (  4124 PWs)   bands (ev):

    -6.6557  -6.6522  -5.0956  -5.0908  -4.2170  -4.2081   0.9843   1.0356
     1.3814   1.4554   2.3554   2.5206   2.7664   3.1427   3.5957   3.7892
     5.0386   5.1026   7.0914   7.1503   8.1528   8.2045   9.2084   9.2318
    10.0695  10.1247

     occupation numbers 
     1.0000   1.0000   1.0000   1.0000   1.0000   1.0000   1.0000   1.0000
     1.0000   1.0000   1.0000   1.0000   1.0000   1.0000   1.0000   1.0000
     1.0000   1.0000   0.0000   0.0000   0.0000   0.0000   0.0000   0.0000
     0.0000   0.0000

          k =-0.1667-0.4811 0.2512 (  4122 PWs)   bands (ev):

    -6.4353  -6.4292  -5.5543  -5.5471  -3.9882  -3.9805   0.7771   0.8505
     1.1686   1.2354   2.0109   2.0856   3.4876   3.6978   4.3863   4.5272
     5.2878   5.4193   6.8769   6.9071   8.0202   8.0872   8.5109   8.5524
    10.5448  10.5899

     occupation numbers 
     1.0000   1.0000   1.0000   1.0000   1.0000   1.0000   1.0000   1.0000
     1.0000   1.0000   1.0000   1.0000   1.0000   1.0000   1.0000   1.0000
     1.0000   1.0000   0.0000   0.0000   0.0000   0.0000   0.0000   0.0000
     0.0000   0.0000

          k =-0.1667 0.4811 0.1256 (  4124 PWs)   bands (ev):

    -6.6448  -6.6411  -5.1807  -5.1755  -4.1055  -4.0969   0.7943   0.8271
     1.2920   1.3943   2.3195   2.4510   3.1252   3.2936   3.9956   4.1290
     4.8092   4.9314   7.2356   7.2993   8.2624   8.2937   8.4137   8.4815
     9.9569  10.0111

     occupation numbers 
     1.0000   1.0000   1.0000   1.0000   1.0000   1.0000   1.0000   1.0000
     1.0000   1.0000   1.0000   1.0000   1.0000   1.0000   1.0000   1.0000
     1.0000   1.0000   0.0000   0.0000   0.0000   0.0000   0.0000   0.0000
     0.0000   0.0000

          k =-0.1667 0.4811 0.2512 (  4122 PWs)   bands (ev):

    -6.4121  -6.4052  -5.6205  -5.6124  -3.9075  -3.8998   0.5291   0.5718
     1.2693   1.3447   2.0546   2.1283   3.3748   3.5019   4.9204   5.1275
     5.4871   5.7417   6.6160   6.6771   7.3741   7.4444   8.4406   8.5511
    10.2812  10.3585

     occupation numbers 
     1.0000   1.0000   1.0000   1.0000   1.0000   1.0000   1.0000   1.0000
     1.0000   1.0000   1.0000   1.0000   1.0000   1.0000   1.0000   1.0000
     1.0000   0.9999   0.0000   0.0000   0.0000   0.0000   0.0000   0.0000
     0.0000   0.0000

          k =-0.1667 0.2887 0.1256 (  4137 PWs)   bands (ev):

    -7.0947  -7.0926  -5.1469  -5.1429  -3.8087  -3.8034   1.2079   1.2717
     1.6301   1.6900   2.7229   2.8604   3.5551   3.6490   4.3165   4.4343
     5.3617   5.4280   6.8134   6.8825   7.5756   7.6184   8.1835   8.2155
    10.1874  10.2177

     occupation numbers 
     1.0000   1.0000   1.0000   1.0000   1.0000   1.0000   1.0000   1.0000
     1.0000   1.0000   1.0000   1.0000   1.0000   1.0000   1.0000   1.0000
     1.0000   1.0000   0.0000   0.0000   0.0000   0.0000   0.0000   0.0000
     0.0000   0.0000

          k =-0.1667 0.2887 0.2512 (  4125 PWs)   bands (ev):

    -6.8250  -6.8212  -5.8096  -5.8044  -3.3707  -3.3649   1.2171   1.3100
     1.7219   1.8565   2.5615   2.6764   3.2566   3.4370   4.7681   4.8943
     5.1145   5.2313   6.7494   6.8033   7.5806   7.5919   8.3704   8.4242
    10.3718  10.3923

     occupation numbers 
     1.0000   1.0000   1.0000   1.0000   1.0000   1.0000   1.0000   1.0000
     1.0000   1.0000   1.0000   1.0000   1.0000   1.0000   1.0000   1.0000
     1.0000   1.0000   0.0000   0.0000   0.0000   0.0000   0.0000   0.0000
     0.0000   0.0000

          k =-0.1667 0.0962 0.1256 (  4152 PWs)   bands (ev):

    -7.4141  -7.4127  -5.2212  -5.2180  -3.5730  -3.5703   1.7708   1.8590
     2.4793   2.6744   2.7550   3.1143   4.2011   4.2541   4.3457   4.5216
     4.7671   4.9541   6.9349   7.0330   7.3216   7.4460   7.7267   7.8242
    10.6360  10.6766

     occupation numbers 
     1.0000   1.0000   1.0000   1.0000   1.0000   1.0000   1.0000   1.0000
     1.0000   1.0000   1.0000   1.0000   1.0000   1.0000   1.0000   1.0000
     1.0000   1.0000   0.0000   0.0000   0.0000   0.0000   0.0000   0.0000
     0.0000   0.0000

          k =-0.1667 0.0962 0.2512 (  4146 PWs)   bands (ev):

    -7.1254  -7.1228  -5.9992  -5.9954  -2.9124  -2.9080   1.7841   1.8532
     2.6022   2.7644   3.0141   3.2585   3.6933   3.9153   4.1210   4.2083
     4.5896   4.7398   6.9559   6.9988   7.5821   7.6751   7.7367   7.8036
    10.5801  10.5986

     occupation numbers 
     1.0000   1.0000   1.0000   1.0000   1.0000   1.0000   1.0000   1.0000
     1.0000   1.0000   1.0000   1.0000   1.0000   1.0000   1.0000   1.0000
     1.0000   1.0000   0.0000   0.0000   0.0000   0.0000   0.0000   0.0000
     0.0000   0.0000

          k =-0.3333-0.1925 0.1256 (  4128 PWs)   bands (ev):

    -6.9524  -6.9498  -5.2241  -5.2197  -3.7784  -3.7721   0.8587   0.8869
     1.3457   1.4455   2.3986   2.5374   4.1840   4.4379   4.6597   4.9333
     4.9509   5.1548   6.7387   6.7981   7.2203   7.3239   7.8341   7.8613
     9.2705   9.3303

     occupation numbers 
     1.0000   1.0000   1.0000   1.0000   1.0000   1.0000   1.0000   1.0000
     1.0000   1.0000   1.0000   1.0000   1.0000   1.0000   1.0000   1.0000
     1.0000   1.0000   0.0000   0.0000   0.0000   0.0000   0.0000   0.0000
     0.0000   0.0000

          k =-0.3333-0.1925 0.2512 (  4133 PWs)   bands (ev):

    -6.6852  -6.6803  -5.7908  -5.7845  -3.4762  -3.4700   0.6930   0.7373
     1.5839   1.7020   2.5431   2.6575   3.9112   4.0741   4.2950   4.3983
     5.7175   5.7706   6.6107   6.6825   7.2522   7.3846   7.7291   8.0662
     9.7473   9.8815

     occupation numbers 
     1.0000   1.0000   1.0000   1.0000   1.0000   1.0000   1.0000   1.0000
     1.0000   1.0000   1.0000   1.0000   1.0000   1.0000   1.0000   1.0000
     0.9999   0.9996   0.0000   0.0000   0.0000   0.0000   0.0000   0.0000
     0.0000   0.0000

          k =-0.3333-0.3849 0.1256 (  4124 PWs)   bands (ev):

    -6.6448  -6.6411  -5.1806  -5.1754  -4.1056  -4.0969   0.7942   0.8271
     1.2920   1.3944   2.3194   2.4509   3.1252   3.2936   3.9955   4.1290
     4.8092   4.9314   7.2355   7.2992   8.2624   8.2937   8.4137   8.4815
     9.9568  10.0110

     occupation numbers 
     1.0000   1.0000   1.0000   1.0000   1.0000   1.0000   1.0000   1.0000
     1.0000   1.0000   1.0000   1.0000   1.0000   1.0000   1.0000   1.0000
     1.0000   1.0000   0.0000   0.0000   0.0000   0.0000   0.0000   0.0000
     0.0000   0.0000

          k =-0.3333-0.3849 0.2512 (  4122 PWs)   bands (ev):

    -6.4120  -6.4052  -5.6205  -5.6123  -3.9075  -3.8998   0.5290   0.5717
     1.2693   1.3447   2.0546   2.1282   3.3748   3.5019   4.9203   5.1274
     5.4871   5.7417   6.6160   6.6770   7.3741   7.4444   8.4406   8.5511
    10.2812  10.3584

     occupation numbers 
     1.0000   1.0000   1.0000   1.0000   1.0000   1.0000   1.0000   1.0000
     1.0000   1.0000   1.0000   1.0000   1.0000   1.0000   1.0000   1.0000
     1.0000   0.9999   0.0000   0.0000   0.0000   0.0000   0.0000   0.0000
     0.0000   0.0000

          k =-0.3333-0.5773 0.1256 (  4140 PWs)   bands (ev):

    -6.4641  -6.4595  -5.0950  -5.0914  -4.3741  -4.3641   0.9064   0.9203
     1.2832   1.4495   2.0924   2.2006   2.8166   3.0012   3.8133   3.8544
     4.1951   4.3894   8.1403   8.2962   8.5988   8.7166   8.7279   8.7571
    10.9987  11.0464

     occupation numbers 
     1.0000   1.0000   1.0000   1.0000   1.0000   1.0000   1.0000   1.0000
     1.0000   1.0000   1.0000   1.0000   1.0000   1.0000   1.0000   1.0000
     1.0000   1.0000   0.0000   0.0000   0.0000   0.0000   0.0000   0.0000
     0.0000   0.0000

          k =-0.3333-0.5773 0.2512 (  4146 PWs)   bands (ev):

    -6.2509  -6.2425  -5.5189  -5.5099  -4.1380  -4.1293   0.7197   0.7732
     0.8847   0.9442   1.3625   1.4738   3.8564   3.9892   4.8932   5.0465
     5.2379   5.5300   7.0326   7.1470   7.8352   7.9290   8.0414   8.0689
    11.6327  11.6413

     occupation numbers 
     1.0000   1.0000   1.0000   1.0000   1.0000   1.0000   1.0000   1.0000
     1.0000   1.0000   1.0000   1.0000   1.0000   1.0000   1.0000   1.0000
     1.0000   1.0000   0.0000   0.0000   0.0000   0.0000   0.0000   0.0000
     0.0000   0.0000

          k =-0.3333 0.3849 0.1256 (  4124 PWs)   bands (ev):

    -6.6557  -6.6522  -5.0956  -5.0908  -4.2170  -4.2081   0.9844   1.0356
     1.3814   1.4554   2.3553   2.5205   2.7664   3.1427   3.5957   3.7892
     5.0386   5.1026   7.0914   7.1503   8.1529   8.2046   9.2084   9.2318
    10.0695  10.1247

     occupation numbers 
     1.0000   1.0000   1.0000   1.0000   1.0000   1.0000   1.0000   1.0000
     1.0000   1.0000   1.0000   1.0000   1.0000   1.0000   1.0000   1.0000
     1.0000   1.0000   0.0000   0.0000   0.0000   0.0000   0.0000   0.0000
     0.0000   0.0000

          k =-0.3333 0.3849 0.2512 (  4122 PWs)   bands (ev):

    -6.4353  -6.4292  -5.5543  -5.5471  -3.9882  -3.9805   0.7771   0.8505
     1.1686   1.2354   2.0108   2.0856   3.4876   3.6978   4.3863   4.5272
     5.2878   5.4193   6.8769   6.9070   8.0203   8.0873   8.5109   8.5524
    10.5449  10.5900

     occupation numbers 
     1.0000   1.0000   1.0000   1.0000   1.0000   1.0000   1.0000   1.0000
     1.0000   1.0000   1.0000   1.0000   1.0000   1.0000   1.0000   1.0000
     1.0000   1.0000   0.0000   0.0000   0.0000   0.0000   0.0000   0.0000
     0.0000   0.0000

          k =-0.3333 0.1924 0.1256 (  4128 PWs)   bands (ev):

    -6.9698  -6.9674  -5.0643  -5.0605  -4.0289  -4.0228   1.2851   1.3992
     1.7707   1.8915   2.5011   2.7355   2.7601   2.9886   4.3080   4.5592
     4.7507   4.9142   6.9327   7.0327   7.6219   7.8564   9.1056   9.1183
     9.9231  10.0354

     occupation numbers 
     1.0000   1.0000   1.0000   1.0000   1.0000   1.0000   1.0000   1.0000
     1.0000   1.0000   1.0000   1.0000   1.0000   1.0000   1.0000   1.0000
     1.0000   1.0000   0.0000   0.0000   0.0000   0.0000   0.0000   0.0000
     0.0000   0.0000

          k =-0.3333 0.1924 0.2512 (  4133 PWs)   bands (ev):

    -6.7231  -6.7190  -5.6799  -5.6746  -3.6609  -3.6548   1.1594   1.2337
     1.9140   2.0724   2.5091   2.6516   3.2578   3.6187   3.8674   4.0286
     4.3621   4.5840   7.3400   7.3938   8.1673   8.3250   8.8003   8.8144
    10.5496  10.6598

     occupation numbers 
     1.0000   1.0000   1.0000   1.0000   1.0000   1.0000   1.0000   1.0000
     1.0000   1.0000   1.0000   1.0000   1.0000   1.0000   1.0000   1.0000
     1.0000   1.0000   0.0000   0.0000   0.0000   0.0000   0.0000   0.0000
     0.0000   0.0000

          k =-0.3333-0.0000 0.1256 (  4137 PWs)   bands (ev):

    -7.0947  -7.0926  -5.1468  -5.1429  -3.8087  -3.8035   1.2079   1.2716
     1.6301   1.6900   2.7229   2.8604   3.5551   3.6489   4.3165   4.4343
     5.3617   5.4280   6.8134   6.8825   7.5755   7.6183   8.1835   8.2155
    10.1872  10.2170

     occupation numbers 
     1.0000   1.0000   1.0000   1.0000   1.0000   1.0000   1.0000   1.0000
     1.0000   1.0000   1.0000   1.0000   1.0000   1.0000   1.0000   1.0000
     1.0000   1.0000   0.0000   0.0000   0.0000   0.0000   0.0000   0.0000
     0.0000   0.0000

          k =-0.3333-0.0000 0.2512 (  4125 PWs)   bands (ev):

    -6.8250  -6.8212  -5.8095  -5.8044  -3.3707  -3.3649   1.2171   1.3100
     1.7220   1.8566   2.5615   2.6764   3.2566   3.4370   4.7680   4.8943
     5.1144   5.2313   6.7494   6.8032   7.5806   7.5919   8.3703   8.4242
    10.3717  10.3923

     occupation numbers 
     1.0000   1.0000   1.0000   1.0000   1.0000   1.0000   1.0000   1.0000
     1.0000   1.0000   1.0000   1.0000   1.0000   1.0000   1.0000   1.0000
     1.0000   1.0000   0.0000   0.0000   0.0000   0.0000   0.0000   0.0000
     0.0000   0.0000

          k = 0.5000 0.0962 0.1256 (  4124 PWs)   bands (ev):

    -6.6557  -6.6521  -5.0956  -5.0908  -4.2170  -4.2081   0.9844   1.0356
     1.3814   1.4554   2.3553   2.5205   2.7664   3.1427   3.5957   3.7892
     5.0385   5.1025   7.0913   7.1502   8.1528   8.2044   9.2085   9.2319
    10.0694  10.1246

     occupation numbers 
     1.0000   1.0000   1.0000   1.0000   1.0000   1.0000   1.0000   1.0000
     1.0000   1.0000   1.0000   1.0000   1.0000   1.0000   1.0000   1.0000
     1.0000   1.0000   0.0000   0.0000   0.0000   0.0000   0.0000   0.0000
     0.0000   0.0000

          k = 0.5000 0.0962 0.2512 (  4122 PWs)   bands (ev):

    -6.4353  -6.4292  -5.5543  -5.5471  -3.9882  -3.9805   0.7771   0.8505
     1.1686   1.2354   2.0108   2.0856   3.4876   3.6978   4.3863   4.5271
     5.2878   5.4192   6.8769   6.9070   8.0202   8.0872   8.5110   8.5525
    10.5448  10.5899

     occupation numbers 
     1.0000   1.0000   1.0000   1.0000   1.0000   1.0000   1.0000   1.0000
     1.0000   1.0000   1.0000   1.0000   1.0000   1.0000   1.0000   1.0000
     1.0000   1.0000   0.0000   0.0000   0.0000   0.0000   0.0000   0.0000
     0.0000   0.0000

          k = 0.5000-0.0962 0.1256 (  4124 PWs)   bands (ev):

    -6.6448  -6.6411  -5.1806  -5.1755  -4.1055  -4.0969   0.7943   0.8271
     1.2920   1.3943   2.3195   2.4509   3.1252   3.2936   3.9955   4.1290
     4.8092   4.9314   7.2355   7.2993   8.2624   8.2938   8.4137   8.4815
     9.9569  10.0111

     occupation numbers 
     1.0000   1.0000   1.0000   1.0000   1.0000   1.0000   1.0000   1.0000
     1.0000   1.0000   1.0000   1.0000   1.0000   1.0000   1.0000   1.0000
     1.0000   1.0000   0.0000   0.0000   0.0000   0.0000   0.0000   0.0000
     0.0000   0.0000

          k = 0.5000-0.0962 0.2512 (  4122 PWs)   bands (ev):

    -6.4121  -6.4052  -5.6205  -5.6124  -3.9075  -3.8998   0.5290   0.5718
     1.2693   1.3447   2.0546   2.1283   3.3748   3.5019   4.9204   5.1274
     5.4871   5.7417   6.6160   6.6770   7.3741   7.4443   8.4407   8.5512
    10.2812  10.3585

     occupation numbers 
     1.0000   1.0000   1.0000   1.0000   1.0000   1.0000   1.0000   1.0000
     1.0000   1.0000   1.0000   1.0000   1.0000   1.0000   1.0000   1.0000
     1.0000   0.9999   0.0000   0.0000   0.0000   0.0000   0.0000   0.0000
     0.0000   0.0000

     the Fermi energy is     6.0909 ev

!    total energy              =     -85.64418383 Ry
     estimated scf accuracy    <          5.5E-09 Ry
     smearing contrib. (-TS)   =      -0.00009191 Ry
     internal energy E=F+TS    =     -85.64409192 Ry

     The total energy is F=E-TS. E is the sum of the following terms:
     one-electron contribution =      10.04395116 Ry
     hartree contribution      =       3.40043094 Ry
     xc contribution           =     -49.69421153 Ry
     ewald contribution        =     -49.39426249 Ry

     convergence has been achieved in   8 iterations


     Computing stress (Cartesian axis) and pressure

          total   stress  (Ry/bohr**3)                   (kbar)     P=       21.78
   0.00012680   0.00000001   0.00000002           18.65        0.00        0.00
   0.00000001   0.00012677   0.00000002            0.00       18.65        0.00
   0.00000002   0.00000002   0.00019061            0.00        0.00       28.04

     kinetic stress (kbar)   2325.87      0.00     -0.00
                                0.00   2325.86     -0.00
                               -0.00     -0.00   2201.05

     local   stress (kbar)    146.63     -0.02     -0.04
                               -0.02    146.66     -0.03
                               -0.04     -0.03   -578.37

     nonloc. stress (kbar)   2356.24      0.00      0.00
                                0.00   2356.24      0.00
                                0.00      0.00   2346.14

     hartree stress (kbar)    182.25      0.01      0.01
                                0.01    182.24      0.01
                                0.01      0.01    358.55

     exc-cor stress (kbar)   6961.21      0.00      0.00
                                0.00   6961.21      0.00
                                0.00      0.00   6963.55

     corecor stress (kbar)  -8225.10     -0.00     -0.00
                               -0.00  -8225.10     -0.00
                               -0.00     -0.00  -8216.94

     ewald   stress (kbar)  -3728.44      0.01      0.03
                                0.01  -3728.46      0.03
                                0.03      0.03  -3045.93

     hubbard stress (kbar)      0.00      0.00      0.00
                                0.00      0.00      0.00
                                0.00      0.00      0.00

     DFT-D   stress (kbar)      0.00      0.00      0.00
                                0.00      0.00      0.00
                                0.00      0.00      0.00

     XDM     stress (kbar)      0.00      0.00      0.00
                                0.00      0.00      0.00
                                0.00      0.00      0.00

     dft-nl  stress (kbar)      0.00      0.00      0.00
                                0.00      0.00      0.00
                                0.00      0.00      0.00

     TS-vdW  stress (kbar)      0.00      0.00      0.00
                                0.00      0.00      0.00
                                0.00      0.00      0.00

     MDB     stress (kbar)      0.00      0.00      0.00
                                0.00      0.00      0.00
                                0.00      0.00      0.00

     3D-RISM stress (kbar)      0.00      0.00      0.00
                                0.00      0.00      0.00
                                0.00      0.00      0.00


     Writing all to output data dir /home/user/workspace/qe_runs/strain_trans_p0025/out/tetrans_p0025.save/ :
     XML data file, charge density, pseudopotentials, collected wavefunctions

     init_run     :      5.08s CPU      5.52s WALL (       1 calls)
     electrons    :    171.69s CPU    178.76s WALL (       1 calls)
     stress       :      8.50s CPU      8.82s WALL (       1 calls)

     Called by init_run:
     wfcinit      :      4.19s CPU      4.46s WALL (       1 calls)
     wfcinit:atom :      0.05s CPU      0.05s WALL (     112 calls)
     wfcinit:wfcr :      3.99s CPU      4.25s WALL (     112 calls)
     potinit      :      0.18s CPU      0.18s WALL (       1 calls)
     hinit0       :      0.43s CPU      0.44s WALL (       1 calls)

     Called by electrons:
     c_bands      :    148.34s CPU    152.41s WALL (       8 calls)
     sum_band     :     20.99s CPU     23.20s WALL (       8 calls)
     v_of_rho     :      0.21s CPU      0.21s WALL (       9 calls)
     v_h          :      0.01s CPU      0.01s WALL (       9 calls)
     v_xc         :      0.22s CPU      0.23s WALL (      10 calls)
     newd         :      2.25s CPU      3.15s WALL (       9 calls)
     mix_rho      :      0.12s CPU      0.13s WALL (       8 calls)

     Called by c_bands:
     init_us_2    :      1.82s CPU      1.85s WALL (    2016 calls)
     cegterg      :    126.01s CPU    129.93s WALL (     896 calls)

     Called by sum_band:
     sum_band:wei :      0.02s CPU      0.02s WALL (       8 calls)
     sum_band:loo :     18.82s CPU     19.38s WALL (       8 calls)
     sum_band:buf :      0.39s CPU      0.39s WALL (     896 calls)
     sum_band:ini :      0.79s CPU      0.79s WALL (     896 calls)
     sum_band:cal :      1.72s CPU      1.80s WALL (     896 calls)
     sum_band:bec :      2.06s CPU      2.10s WALL (     896 calls)
     addusdens    :      2.07s CPU      3.71s WALL (       8 calls)
                                        0.00s GPU  (       8 calls)
     addusd:skk   :      0.00s CPU      0.00s WALL (       8 calls)
                                        0.00s GPU  (       8 calls)

     Called by *egterg:
     cdiaghg      :      3.72s CPU      3.78s WALL (    5168 calls)
     cegterg:over :      5.55s CPU      5.65s WALL (    4272 calls)
     cegterg:upda :      3.27s CPU      3.34s WALL (    4272 calls)
     cegterg:last :      6.34s CPU      6.37s WALL (    2529 calls)
     h_psi        :    100.88s CPU    104.59s WALL (    5280 calls)
     s_psi        :      5.91s CPU      6.03s WALL (    5280 calls)
     g_psi        :      1.17s CPU      1.19s WALL (    4272 calls)

     Called by h_psi:
     h_psi:calbec :      6.91s CPU      7.15s WALL (    5280 calls)
     vloc_psi     :     87.41s CPU     90.70s WALL (    5280 calls)
                                        0.00s GPU  (    5280 calls)
     add_vuspsi   :      5.89s CPU      6.02s WALL (    5280 calls)

     General routines
     calbec       :     11.51s CPU     11.87s WALL (    7632 calls)
     fft          :      0.34s CPU      0.35s WALL (     228 calls)
     ffts         :      0.16s CPU      0.16s WALL (      68 calls)
     fftw         :     87.00s CPU     90.18s WALL (  369072 calls)
     interpolate  :      0.17s CPU      0.17s WALL (      36 calls)

     Parallel routines

     PWSCF        :   3m 5.54s CPU   3m13.63s WALL


   This run was terminated on:   7:59:55  20Aug2026            

=------------------------------------------------------------------------------=
   JOB DONE.
=------------------------------------------------------------------------------=
