
     Program PWSCF v.7.5 starts on 20Aug2026 at  8: 0:43 

     This program is part of the open-source Quantum ESPRESSO suite
     for quantum simulation of materials; please cite
         "P. Giannozzi et al., J. Phys.:Condens. Matter 21 395502 (2009);
         "P. Giannozzi et al., J. Phys.:Condens. Matter 29 465901 (2017);
         "P. Giannozzi et al., J. Chem. Phys. 152 154105 (2020);
          URL http://www.quantum-espresso.org", 
     in publications or presentations arising from this work. More details at
     http://www.quantum-espresso.org/quote

     Parallel version (MPI & OpenMP), running on       2 processor cores
     Number of MPI processes:                 2
     Threads/MPI process:                     1

     MPI processes distributed on     1 nodes
     799 MiB available memory on the printing compute node when the environment starts

     Reading input from strain_trans_p0050/scf.in

     Current dimensions of program PWSCF are:
     Max number of different atomic species (ntypx) = 10
     Max number of k-points (npk) =  40000
     Max angular momentum in pseudopotentials (lmaxx) =  4
     file Te.rel-pbe-n-rrkjus_psl.1.0.0.UPF: wavefunction(s)  5S renormalized

     R & G space division:  proc/nbgrp/npool/nimage =       2
     Subspace diagonalization in iterative solution of the eigenvalue problem:
     a serial algorithm will be used


     Parallelization info
     --------------------
     sticks:   dense  smooth     PW     G-vecs:    dense   smooth      PW
     Min         741     489    155                30505    16611    2870
     Max         742     490    158                30510    16614    2871
     Sum        1483     979    313                61015    33225    5741

     Using Slab Decomposition



     bravais-lattice index     =            0
     lattice parameter (alat)  =       8.4650  a.u.
     unit-cell volume          =     695.2907 (a.u.)^3
     number of atoms/cell      =            3
     number of atomic types    =            1
     number of electrons       =        18.00
     number of Kohn-Sham states=           26
     kinetic-energy cutoff     =      50.0000  Ry
     charge density cutoff     =     300.0000  Ry
     scf convergence threshold =      1.0E-08
     mixing beta               =       0.4000
     number of iterations used =            8  plain     mixing
     Exchange-correlation= PBE
                           (   1   4   3   4   0   0   0)
     Non magnetic calculation with spin-orbit


     celldm(1)=   8.465028  celldm(2)=   0.000000  celldm(3)=   0.000000
     celldm(4)=   0.000000  celldm(5)=   0.000000  celldm(6)=   0.000000

     crystal axes: (cart. coord. in units of alat)
               a(1) = (   1.000000   0.000000   0.000000 )  
               a(2) = (  -0.499989   0.866023   0.000000 )  
               a(3) = (   0.000000   0.000000   1.323585 )  

     reciprocal axes: (cart. coord. in units 2 pi/alat)
               b(1) = (  1.000000  0.577339 -0.000000 )  
               b(2) = (  0.000000  1.154704  0.000000 )  
               b(3) = (  0.000000 -0.000000  0.755524 )  


     PseudoPot. # 1 for Te read from file:
     /home/user/workspace/qe_runs/pseudo/Te.rel-pbe-n-rrkjus_psl.1.0.0.UPF
     MD5 check sum: 7fd30b6833abd190471e4dcc2367351b
     Pseudo is Ultrasoft + core correction, Zval =  6.0
     Generated using &quot;atomic&quot; code by A. Dal Corso  v.6.3
     Using radial grid of 1245 points, 10 beta functions with: 
                l(1) =   0
                l(2) =   0
                l(3) =   1
                l(4) =   1
                l(5) =   1
                l(6) =   1
                l(7) =   2
                l(8) =   2
                l(9) =   2
               l(10) =   2
     Q(r) pseudized with 0 coefficients 


     atomic species   valence    mass     pseudopotential
     Te                6.00   127.60000     Te( 1.00)

     No symmetry found


                                    s                        frac. trans.

      isym =  1     identity                                     

 cryst.   s( 1) = (     1          0          0      )
                  (     0          1          0      )
                  (     0          0          1      )

 cart.    s( 1) = (  1.0000000  0.0000000  0.0000000 )
                  (  0.0000000  1.0000000  0.0000000 )
                  (  0.0000000  0.0000000  1.0000000 )


   Cartesian axes

     site n.     atom                  positions (alat units)
         1        Te     tau(   1) = (   0.2636000   0.0000000   0.4411950  )
         2        Te     tau(   2) = (  -0.1317971   0.2282836   0.8823902  )
         3        Te     tau(   3) = (  -0.1318029  -0.2282836   0.0000000  )

   Crystallographic axes

     site n.     atom                  positions (cryst. coord.)
         1        Te     tau(   1) = (  0.2636000  0.0000000  0.3333333  )
         2        Te     tau(   2) = (  0.0000000  0.2636000  0.6666667  )
         3        Te     tau(   3) = ( -0.2636000 -0.2636000  0.0000000  )

     number of k points=   112  Gaussian smearing, width (Ry)=  0.0100
                       cart. coord. in units 2pi/alat
        k(    1) = (   0.0000000   0.0000000   0.0000000), wk =   0.0046296
        k(    2) = (   0.0000000   0.0000000   0.1259206), wk =   0.0092593
        k(    3) = (   0.0000000   0.0000000   0.2518412), wk =   0.0092593
        k(    4) = (   0.0000000   0.0000000  -0.3777618), wk =   0.0046296
        k(    5) = (   0.0000000   0.1924507   0.0000000), wk =   0.0092593
        k(    6) = (   0.0000000   0.1924507   0.1259206), wk =   0.0092593
        k(    7) = (   0.0000000   0.1924507   0.2518412), wk =   0.0092593
        k(    8) = (   0.0000000   0.1924507  -0.3777618), wk =   0.0092593
        k(    9) = (   0.0000000   0.3849013   0.0000000), wk =   0.0092593
        k(   10) = (   0.0000000   0.3849013   0.1259206), wk =   0.0092593
        k(   11) = (   0.0000000   0.3849013   0.2518412), wk =   0.0092593
        k(   12) = (   0.0000000   0.3849013  -0.3777618), wk =   0.0092593
        k(   13) = (   0.0000000  -0.5773520   0.0000000), wk =   0.0046296
        k(   14) = (   0.0000000  -0.5773520   0.1259206), wk =   0.0092593
        k(   15) = (   0.0000000  -0.5773520   0.2518412), wk =   0.0092593
        k(   16) = (   0.0000000  -0.5773520  -0.3777618), wk =   0.0046296
        k(   17) = (   0.1666667   0.0962232   0.0000000), wk =   0.0092593
        k(   18) = (   0.1666667   0.0962232   0.1259206), wk =   0.0092593
        k(   19) = (   0.1666667   0.0962232   0.2518412), wk =   0.0092593
        k(   20) = (   0.1666667   0.0962232  -0.3777618), wk =   0.0092593
        k(   21) = (   0.1666667   0.2886739   0.0000000), wk =   0.0092593
        k(   22) = (   0.1666667   0.2886739   0.1259206), wk =   0.0092593
        k(   23) = (   0.1666667   0.2886739   0.2518412), wk =   0.0092593
        k(   24) = (   0.1666667   0.2886739  -0.3777618), wk =   0.0092593
        k(   25) = (   0.1666667   0.4811245   0.0000000), wk =   0.0092593
        k(   26) = (   0.1666667   0.4811245   0.1259206), wk =   0.0092593
        k(   27) = (   0.1666667   0.4811245   0.2518412), wk =   0.0092593
        k(   28) = (   0.1666667   0.4811245  -0.3777618), wk =   0.0092593
        k(   29) = (   0.1666667  -0.4811288   0.0000000), wk =   0.0092593
        k(   30) = (   0.1666667  -0.4811288   0.1259206), wk =   0.0092593
        k(   31) = (   0.1666667  -0.4811288   0.2518412), wk =   0.0092593
        k(   32) = (   0.1666667  -0.4811288  -0.3777618), wk =   0.0092593
        k(   33) = (   0.1666667  -0.2886782   0.0000000), wk =   0.0092593
        k(   34) = (   0.1666667  -0.2886782   0.1259206), wk =   0.0092593
        k(   35) = (   0.1666667  -0.2886782   0.2518412), wk =   0.0092593
        k(   36) = (   0.1666667  -0.2886782  -0.3777618), wk =   0.0092593
        k(   37) = (   0.1666667  -0.0962275   0.0000000), wk =   0.0092593
        k(   38) = (   0.1666667  -0.0962275   0.1259206), wk =   0.0092593
        k(   39) = (   0.1666667  -0.0962275   0.2518412), wk =   0.0092593
        k(   40) = (   0.1666667  -0.0962275  -0.3777618), wk =   0.0092593
        k(   41) = (   0.3333333   0.1924464   0.0000000), wk =   0.0092593
        k(   42) = (   0.3333333   0.1924464   0.1259206), wk =   0.0092593
        k(   43) = (   0.3333333   0.1924464   0.2518412), wk =   0.0092593
        k(   44) = (   0.3333333   0.1924464  -0.3777618), wk =   0.0092593
        k(   45) = (   0.3333333   0.3848971   0.0000000), wk =   0.0092593
        k(   46) = (   0.3333333   0.3848971   0.1259206), wk =   0.0092593
        k(   47) = (   0.3333333   0.3848971   0.2518412), wk =   0.0092593
        k(   48) = (   0.3333333   0.3848971  -0.3777618), wk =   0.0092593
        k(   49) = (   0.3333333   0.5773477   0.0000000), wk =   0.0092593
        k(   50) = (   0.3333333   0.5773477   0.1259206), wk =   0.0092593
        k(   51) = (   0.3333333   0.5773477   0.2518412), wk =   0.0092593
        k(   52) = (   0.3333333   0.5773477  -0.3777618), wk =   0.0092593
        k(   53) = (   0.3333333  -0.3849056   0.0000000), wk =   0.0092593
        k(   54) = (   0.3333333  -0.3849056   0.1259206), wk =   0.0092593
        k(   55) = (   0.3333333  -0.3849056   0.2518412), wk =   0.0092593
        k(   56) = (   0.3333333  -0.3849056  -0.3777618), wk =   0.0092593
        k(   57) = (   0.3333333  -0.1924550   0.0000000), wk =   0.0092593
        k(   58) = (   0.3333333  -0.1924550   0.1259206), wk =   0.0092593
        k(   59) = (   0.3333333  -0.1924550   0.2518412), wk =   0.0092593
        k(   60) = (   0.3333333  -0.1924550  -0.3777618), wk =   0.0092593
        k(   61) = (   0.3333333  -0.0000043   0.0000000), wk =   0.0092593
        k(   62) = (   0.3333333  -0.0000043   0.1259206), wk =   0.0092593
        k(   63) = (   0.3333333  -0.0000043   0.2518412), wk =   0.0092593
        k(   64) = (   0.3333333  -0.0000043  -0.3777618), wk =   0.0092593
        k(   65) = (  -0.5000000  -0.2886696   0.0000000), wk =   0.0046296
        k(   66) = (  -0.5000000  -0.2886696   0.1259206), wk =   0.0092593
        k(   67) = (  -0.5000000  -0.2886696   0.2518412), wk =   0.0092593
        k(   68) = (  -0.5000000  -0.2886696  -0.3777618), wk =   0.0046296
        k(   69) = (  -0.5000000  -0.0962189   0.0000000), wk =   0.0092593
        k(   70) = (  -0.5000000  -0.0962189   0.1259206), wk =   0.0092593
        k(   71) = (  -0.5000000  -0.0962189   0.2518412), wk =   0.0092593
        k(   72) = (  -0.5000000  -0.0962189  -0.3777618), wk =   0.0092593
        k(   73) = (  -0.5000000   0.0962318   0.0000000), wk =   0.0092593
        k(   74) = (  -0.5000000   0.0962318   0.1259206), wk =   0.0092593
        k(   75) = (  -0.5000000   0.0962318   0.2518412), wk =   0.0092593
        k(   76) = (  -0.5000000   0.0962318  -0.3777618), wk =   0.0092593
        k(   77) = (  -0.5000000  -0.8660216   0.0000000), wk =   0.0046296
        k(   78) = (  -0.5000000  -0.8660216   0.1259206), wk =   0.0092593
        k(   79) = (  -0.5000000  -0.8660216   0.2518412), wk =   0.0092593
        k(   80) = (  -0.5000000  -0.8660216  -0.3777618), wk =   0.0046296
        k(   81) = (   0.0000000  -0.1924507   0.1259206), wk =   0.0092593
        k(   82) = (   0.0000000  -0.1924507   0.2518412), wk =   0.0092593
        k(   83) = (   0.0000000  -0.3849013   0.1259206), wk =   0.0092593
        k(   84) = (   0.0000000  -0.3849013   0.2518412), wk =   0.0092593
        k(   85) = (  -0.1666667  -0.0962232   0.1259206), wk =   0.0092593
        k(   86) = (  -0.1666667  -0.0962232   0.2518412), wk =   0.0092593
        k(   87) = (  -0.1666667  -0.2886739   0.1259206), wk =   0.0092593
        k(   88) = (  -0.1666667  -0.2886739   0.2518412), wk =   0.0092593
        k(   89) = (  -0.1666667  -0.4811245   0.1259206), wk =   0.0092593
        k(   90) = (  -0.1666667  -0.4811245   0.2518412), wk =   0.0092593
        k(   91) = (  -0.1666667   0.4811288   0.1259206), wk =   0.0092593
        k(   92) = (  -0.1666667   0.4811288   0.2518412), wk =   0.0092593
        k(   93) = (  -0.1666667   0.2886782   0.1259206), wk =   0.0092593
        k(   94) = (  -0.1666667   0.2886782   0.2518412), wk =   0.0092593
        k(   95) = (  -0.1666667   0.0962275   0.1259206), wk =   0.0092593
        k(   96) = (  -0.1666667   0.0962275   0.2518412), wk =   0.0092593
        k(   97) = (  -0.3333333  -0.1924464   0.1259206), wk =   0.0092593
        k(   98) = (  -0.3333333  -0.1924464   0.2518412), wk =   0.0092593
        k(   99) = (  -0.3333333  -0.3848971   0.1259206), wk =   0.0092593
        k(  100) = (  -0.3333333  -0.3848971   0.2518412), wk =   0.0092593
        k(  101) = (  -0.3333333  -0.5773477   0.1259206), wk =   0.0092593
        k(  102) = (  -0.3333333  -0.5773477   0.2518412), wk =   0.0092593
        k(  103) = (  -0.3333333   0.3849056   0.1259206), wk =   0.0092593
        k(  104) = (  -0.3333333   0.3849056   0.2518412), wk =   0.0092593
        k(  105) = (  -0.3333333   0.1924550   0.1259206), wk =   0.0092593
        k(  106) = (  -0.3333333   0.1924550   0.2518412), wk =   0.0092593
        k(  107) = (  -0.3333333   0.0000043   0.1259206), wk =   0.0092593
        k(  108) = (  -0.3333333   0.0000043   0.2518412), wk =   0.0092593
        k(  109) = (   0.5000000   0.0962189   0.1259206), wk =   0.0092593
        k(  110) = (   0.5000000   0.0962189   0.2518412), wk =   0.0092593
        k(  111) = (   0.5000000  -0.0962318   0.1259206), wk =   0.0092593
        k(  112) = (   0.5000000  -0.0962318   0.2518412), wk =   0.0092593

                       cryst. coord.
        k(    1) = (   0.0000000   0.0000000   0.0000000), wk =   0.0046296
        k(    2) = (   0.0000000   0.0000000   0.1666667), wk =   0.0092593
        k(    3) = (   0.0000000   0.0000000   0.3333333), wk =   0.0092593
        k(    4) = (   0.0000000   0.0000000  -0.5000000), wk =   0.0046296
        k(    5) = (   0.0000000   0.1666667   0.0000000), wk =   0.0092593
        k(    6) = (   0.0000000   0.1666667   0.1666667), wk =   0.0092593
        k(    7) = (   0.0000000   0.1666667   0.3333333), wk =   0.0092593
        k(    8) = (   0.0000000   0.1666667  -0.5000000), wk =   0.0092593
        k(    9) = (   0.0000000   0.3333333   0.0000000), wk =   0.0092593
        k(   10) = (   0.0000000   0.3333333   0.1666667), wk =   0.0092593
        k(   11) = (   0.0000000   0.3333333   0.3333333), wk =   0.0092593
        k(   12) = (   0.0000000   0.3333333  -0.5000000), wk =   0.0092593
        k(   13) = (   0.0000000  -0.5000000   0.0000000), wk =   0.0046296
        k(   14) = (   0.0000000  -0.5000000   0.1666667), wk =   0.0092593
        k(   15) = (   0.0000000  -0.5000000   0.3333333), wk =   0.0092593
        k(   16) = (   0.0000000  -0.5000000  -0.5000000), wk =   0.0046296
        k(   17) = (   0.1666667   0.0000000   0.0000000), wk =   0.0092593
        k(   18) = (   0.1666667   0.0000000   0.1666667), wk =   0.0092593
        k(   19) = (   0.1666667   0.0000000   0.3333333), wk =   0.0092593
        k(   20) = (   0.1666667   0.0000000  -0.5000000), wk =   0.0092593
        k(   21) = (   0.1666667   0.1666667   0.0000000), wk =   0.0092593
        k(   22) = (   0.1666667   0.1666667   0.1666667), wk =   0.0092593
        k(   23) = (   0.1666667   0.1666667   0.3333333), wk =   0.0092593
        k(   24) = (   0.1666667   0.1666667  -0.5000000), wk =   0.0092593
        k(   25) = (   0.1666667   0.3333333   0.0000000), wk =   0.0092593
        k(   26) = (   0.1666667   0.3333333   0.1666667), wk =   0.0092593
        k(   27) = (   0.1666667   0.3333333   0.3333333), wk =   0.0092593
        k(   28) = (   0.1666667   0.3333333  -0.5000000), wk =   0.0092593
        k(   29) = (   0.1666667  -0.5000000   0.0000000), wk =   0.0092593
        k(   30) = (   0.1666667  -0.5000000   0.1666667), wk =   0.0092593
        k(   31) = (   0.1666667  -0.5000000   0.3333333), wk =   0.0092593
        k(   32) = (   0.1666667  -0.5000000  -0.5000000), wk =   0.0092593
        k(   33) = (   0.1666667  -0.3333333   0.0000000), wk =   0.0092593
        k(   34) = (   0.1666667  -0.3333333   0.1666667), wk =   0.0092593
        k(   35) = (   0.1666667  -0.3333333   0.3333333), wk =   0.0092593
        k(   36) = (   0.1666667  -0.3333333  -0.5000000), wk =   0.0092593
        k(   37) = (   0.1666667  -0.1666667   0.0000000), wk =   0.0092593
        k(   38) = (   0.1666667  -0.1666667   0.1666667), wk =   0.0092593
        k(   39) = (   0.1666667  -0.1666667   0.3333333), wk =   0.0092593
        k(   40) = (   0.1666667  -0.1666667  -0.5000000), wk =   0.0092593
        k(   41) = (   0.3333333   0.0000000   0.0000000), wk =   0.0092593
        k(   42) = (   0.3333333   0.0000000   0.1666667), wk =   0.0092593
        k(   43) = (   0.3333333   0.0000000   0.3333333), wk =   0.0092593
        k(   44) = (   0.3333333   0.0000000  -0.5000000), wk =   0.0092593
        k(   45) = (   0.3333333   0.1666667   0.0000000), wk =   0.0092593
        k(   46) = (   0.3333333   0.1666667   0.1666667), wk =   0.0092593
        k(   47) = (   0.3333333   0.1666667   0.3333333), wk =   0.0092593
        k(   48) = (   0.3333333   0.1666667  -0.5000000), wk =   0.0092593
        k(   49) = (   0.3333333   0.3333333   0.0000000), wk =   0.0092593
        k(   50) = (   0.3333333   0.3333333   0.1666667), wk =   0.0092593
        k(   51) = (   0.3333333   0.3333333   0.3333333), wk =   0.0092593
        k(   52) = (   0.3333333   0.3333333  -0.5000000), wk =   0.0092593
        k(   53) = (   0.3333333  -0.5000000   0.0000000), wk =   0.0092593
        k(   54) = (   0.3333333  -0.5000000   0.1666667), wk =   0.0092593
        k(   55) = (   0.3333333  -0.5000000   0.3333333), wk =   0.0092593
        k(   56) = (   0.3333333  -0.5000000  -0.5000000), wk =   0.0092593
        k(   57) = (   0.3333333  -0.3333333   0.0000000), wk =   0.0092593
        k(   58) = (   0.3333333  -0.3333333   0.1666667), wk =   0.0092593
        k(   59) = (   0.3333333  -0.3333333   0.3333333), wk =   0.0092593
        k(   60) = (   0.3333333  -0.3333333  -0.5000000), wk =   0.0092593
        k(   61) = (   0.3333333  -0.1666667   0.0000000), wk =   0.0092593
        k(   62) = (   0.3333333  -0.1666667   0.1666667), wk =   0.0092593
        k(   63) = (   0.3333333  -0.1666667   0.3333333), wk =   0.0092593
        k(   64) = (   0.3333333  -0.1666667  -0.5000000), wk =   0.0092593
        k(   65) = (  -0.5000000  -0.0000000   0.0000000), wk =   0.0046296
        k(   66) = (  -0.5000000  -0.0000000   0.1666667), wk =   0.0092593
        k(   67) = (  -0.5000000  -0.0000000   0.3333333), wk =   0.0092593
        k(   68) = (  -0.5000000  -0.0000000  -0.5000000), wk =   0.0046296
        k(   69) = (  -0.5000000   0.1666667   0.0000000), wk =   0.0092593
        k(   70) = (  -0.5000000   0.1666667   0.1666667), wk =   0.0092593
        k(   71) = (  -0.5000000   0.1666667   0.3333333), wk =   0.0092593
        k(   72) = (  -0.5000000   0.1666667  -0.5000000), wk =   0.0092593
        k(   73) = (  -0.5000000   0.3333333   0.0000000), wk =   0.0092593
        k(   74) = (  -0.5000000   0.3333333   0.1666667), wk =   0.0092593
        k(   75) = (  -0.5000000   0.3333333   0.3333333), wk =   0.0092593
        k(   76) = (  -0.5000000   0.3333333  -0.5000000), wk =   0.0092593
        k(   77) = (  -0.5000000  -0.5000000   0.0000000), wk =   0.0046296
        k(   78) = (  -0.5000000  -0.5000000   0.1666667), wk =   0.0092593
        k(   79) = (  -0.5000000  -0.5000000   0.3333333), wk =   0.0092593
        k(   80) = (  -0.5000000  -0.5000000  -0.5000000), wk =   0.0046296
        k(   81) = (   0.0000000  -0.1666667   0.1666667), wk =   0.0092593
        k(   82) = (   0.0000000  -0.1666667   0.3333333), wk =   0.0092593
        k(   83) = (   0.0000000  -0.3333333   0.1666667), wk =   0.0092593
        k(   84) = (   0.0000000  -0.3333333   0.3333333), wk =   0.0092593
        k(   85) = (  -0.1666667   0.0000000   0.1666667), wk =   0.0092593
        k(   86) = (  -0.1666667   0.0000000   0.3333333), wk =   0.0092593
        k(   87) = (  -0.1666667  -0.1666667   0.1666667), wk =   0.0092593
        k(   88) = (  -0.1666667  -0.1666667   0.3333333), wk =   0.0092593
        k(   89) = (  -0.1666667  -0.3333333   0.1666667), wk =   0.0092593
        k(   90) = (  -0.1666667  -0.3333333   0.3333333), wk =   0.0092593
        k(   91) = (  -0.1666667   0.5000000   0.1666667), wk =   0.0092593
        k(   92) = (  -0.1666667   0.5000000   0.3333333), wk =   0.0092593
        k(   93) = (  -0.1666667   0.3333333   0.1666667), wk =   0.0092593
        k(   94) = (  -0.1666667   0.3333333   0.3333333), wk =   0.0092593
        k(   95) = (  -0.1666667   0.1666667   0.1666667), wk =   0.0092593
        k(   96) = (  -0.1666667   0.1666667   0.3333333), wk =   0.0092593
        k(   97) = (  -0.3333333   0.0000000   0.1666667), wk =   0.0092593
        k(   98) = (  -0.3333333   0.0000000   0.3333333), wk =   0.0092593
        k(   99) = (  -0.3333333  -0.1666667   0.1666667), wk =   0.0092593
        k(  100) = (  -0.3333333  -0.1666667   0.3333333), wk =   0.0092593
        k(  101) = (  -0.3333333  -0.3333333   0.1666667), wk =   0.0092593
        k(  102) = (  -0.3333333  -0.3333333   0.3333333), wk =   0.0092593
        k(  103) = (  -0.3333333   0.5000000   0.1666667), wk =   0.0092593
        k(  104) = (  -0.3333333   0.5000000   0.3333333), wk =   0.0092593
        k(  105) = (  -0.3333333   0.3333333   0.1666667), wk =   0.0092593
        k(  106) = (  -0.3333333   0.3333333   0.3333333), wk =   0.0092593
        k(  107) = (  -0.3333333   0.1666667   0.1666667), wk =   0.0092593
        k(  108) = (  -0.3333333   0.1666667   0.3333333), wk =   0.0092593
        k(  109) = (   0.5000000  -0.1666667   0.1666667), wk =   0.0092593
        k(  110) = (   0.5000000  -0.1666667   0.3333333), wk =   0.0092593
        k(  111) = (   0.5000000  -0.3333333   0.1666667), wk =   0.0092593
        k(  112) = (   0.5000000  -0.3333333   0.3333333), wk =   0.0092593

     Dense  grid:    61015 G-vectors     FFT dimensions: (  48,  48,  64)

     Smooth grid:    33225 G-vectors     FFT dimensions: (  40,  40,  54)

     Dynamical RAM for                 wfc:       1.65 MB

     Dynamical RAM for     wfc (w. buffer):     186.05 MB

     Dynamical RAM for           str. fact:       0.47 MB

     Dynamical RAM for           local pot:       0.00 MB

     Dynamical RAM for          nlocal pot:       3.23 MB

     Dynamical RAM for                qrad:       3.64 MB

     Dynamical RAM for          rho,v,vnew:      12.34 MB

     Dynamical RAM for               rhoin:       4.11 MB

     Dynamical RAM for            rho*nmix:      29.79 MB

     Dynamical RAM for           G-vectors:       1.87 MB

     Dynamical RAM for          h,s,v(r/c):       0.12 MB

     Dynamical RAM for          <psi|beta>:       0.08 MB

     Dynamical RAM for                 psi:       3.29 MB

     Dynamical RAM for                hpsi:       3.29 MB

     Dynamical RAM for                spsi:       3.29 MB

     Dynamical RAM for      wfcinit/wfcrot:       2.49 MB

     Dynamical RAM for           addusdens:     285.33 MB

     Dynamical RAM for         addusstress:     292.31 MB

     Estimated static dynamical RAM per process >     217.13 MB

     Estimated max dynamical RAM per process >     539.24 MB

     Estimated total dynamical RAM >       1.05 GB

     Initial potential from superposition of free atoms

     starting charge      17.9993, renormalised to      18.0000
     Starting wfcs are   24 randomized atomic wfcs +    2 random wfcs

     total cpu time spent up to now is       20.1 secs

     per-process dynamical memory:   240.3 Mb

     Self-consistent Calculation

     iteration #  1     ecut=    50.00 Ry     beta= 0.40
     Davidson diagonalization with overlap

---- Real-time Memory Report at c_bands before calling an iterative solver
           353 MiB given to the printing process from OS
           237 MiB allocation reported by mallinfo(arena+hblkhd)
           422 MiB available memory on the node where the printing process lives
------------------
     c_bands:  1 eigenvalues not converged
     c_bands:  2 eigenvalues not converged
     c_bands:  2 eigenvalues not converged
     c_bands:  1 eigenvalues not converged
     c_bands:  2 eigenvalues not converged
     c_bands:  2 eigenvalues not converged
     c_bands:  2 eigenvalues not converged
     c_bands:  2 eigenvalues not converged
     c_bands:  2 eigenvalues not converged
     c_bands:  2 eigenvalues not converged
     c_bands:  1 eigenvalues not converged
     c_bands:  2 eigenvalues not converged
     c_bands:  2 eigenvalues not converged
     c_bands:  2 eigenvalues not converged
     c_bands:  2 eigenvalues not converged
     c_bands:  2 eigenvalues not converged
     c_bands:  2 eigenvalues not converged
     c_bands:  1 eigenvalues not converged
     c_bands:  2 eigenvalues not converged
     c_bands:  2 eigenvalues not converged
     c_bands:  2 eigenvalues not converged
     c_bands:  2 eigenvalues not converged
     c_bands:  2 eigenvalues not converged
     c_bands:  2 eigenvalues not converged
     c_bands:  2 eigenvalues not converged
     c_bands:  2 eigenvalues not converged
     c_bands:  2 eigenvalues not converged
     c_bands:  2 eigenvalues not converged
     c_bands:  1 eigenvalues not converged
     c_bands:  2 eigenvalues not converged
     c_bands:  2 eigenvalues not converged
     c_bands:  2 eigenvalues not converged
     c_bands:  2 eigenvalues not converged
     c_bands:  2 eigenvalues not converged
     c_bands:  2 eigenvalues not converged
     c_bands:  2 eigenvalues not converged
     c_bands:  1 eigenvalues not converged
     c_bands:  2 eigenvalues not converged
     c_bands:  2 eigenvalues not converged
     c_bands:  2 eigenvalues not converged
     c_bands:  1 eigenvalues not converged
     c_bands:  1 eigenvalues not converged
     c_bands:  2 eigenvalues not converged
     c_bands:  2 eigenvalues not converged
     c_bands:  2 eigenvalues not converged
     c_bands:  2 eigenvalues not converged
     c_bands:  2 eigenvalues not converged
     c_bands:  2 eigenvalues not converged
     c_bands:  2 eigenvalues not converged
     c_bands:  2 eigenvalues not converged
     c_bands:  2 eigenvalues not converged
     ethr =  1.00E-05,  avg # of iterations = 18.8

     total cpu time spent up to now is      218.5 secs

     total energy              =     -85.64449396 Ry
     estimated scf accuracy    <       0.01541036 Ry

     iteration #  2     ecut=    50.00 Ry     beta= 0.40
     Davidson diagonalization with overlap

---- Real-time Memory Report at c_bands before calling an iterative solver
           569 MiB given to the printing process from OS
           257 MiB allocation reported by mallinfo(arena+hblkhd)
           795 MiB available memory on the node where the printing process lives
------------------
     ethr =  8.56E-05,  avg # of iterations =  1.1

     total cpu time spent up to now is      258.6 secs

     total energy              =     -85.64428525 Ry
     estimated scf accuracy    <       0.00454216 Ry

     iteration #  3     ecut=    50.00 Ry     beta= 0.40
     Davidson diagonalization with overlap

---- Real-time Memory Report at c_bands before calling an iterative solver
           571 MiB given to the printing process from OS
           259 MiB allocation reported by mallinfo(arena+hblkhd)
          1317 MiB available memory on the node where the printing process lives
------------------
     ethr =  2.52E-05,  avg # of iterations =  1.0

     total cpu time spent up to now is      273.6 secs

     total energy              =     -85.64453075 Ry
     estimated scf accuracy    <       0.00018465 Ry

     iteration #  4     ecut=    50.00 Ry     beta= 0.40
     Davidson diagonalization with overlap

---- Real-time Memory Report at c_bands before calling an iterative solver
           573 MiB given to the printing process from OS
           261 MiB allocation reported by mallinfo(arena+hblkhd)
          1318 MiB available memory on the node where the printing process lives
------------------
     ethr =  1.03E-06,  avg # of iterations =  5.4

     total cpu time spent up to now is      294.6 secs

     total energy              =     -85.64459641 Ry
     estimated scf accuracy    <       0.00000703 Ry

     iteration #  5     ecut=    50.00 Ry     beta= 0.40
     Davidson diagonalization with overlap

---- Real-time Memory Report at c_bands before calling an iterative solver
           575 MiB given to the printing process from OS
           263 MiB allocation reported by mallinfo(arena+hblkhd)
          1312 MiB available memory on the node where the printing process lives
------------------
     ethr =  3.90E-08,  avg # of iterations =  4.0

     total cpu time spent up to now is      315.8 secs

     total energy              =     -85.64459991 Ry
     estimated scf accuracy    <       0.00000207 Ry

     iteration #  6     ecut=    50.00 Ry     beta= 0.40
     Davidson diagonalization with overlap

---- Real-time Memory Report at c_bands before calling an iterative solver
           577 MiB given to the printing process from OS
           265 MiB allocation reported by mallinfo(arena+hblkhd)
          1306 MiB available memory on the node where the printing process lives
------------------
     ethr =  1.15E-08,  avg # of iterations =  2.1

     total cpu time spent up to now is      332.9 secs

     total energy              =     -85.64460019 Ry
     estimated scf accuracy    <       0.00000011 Ry

     iteration #  7     ecut=    50.00 Ry     beta= 0.40
     Davidson diagonalization with overlap

---- Real-time Memory Report at c_bands before calling an iterative solver
           579 MiB given to the printing process from OS
           267 MiB allocation reported by mallinfo(arena+hblkhd)
          1297 MiB available memory on the node where the printing process lives
------------------
     ethr =  6.11E-10,  avg # of iterations =  2.5

     total cpu time spent up to now is      350.6 secs

     total energy              =     -85.64460021 Ry
     estimated scf accuracy    <       0.00000002 Ry

     iteration #  8     ecut=    50.00 Ry     beta= 0.40
     Davidson diagonalization with overlap

---- Real-time Memory Report at c_bands before calling an iterative solver
           581 MiB given to the printing process from OS
           269 MiB allocation reported by mallinfo(arena+hblkhd)
          1299 MiB available memory on the node where the printing process lives
------------------
     ethr =  9.92E-11,  avg # of iterations =  3.3

     total cpu time spent up to now is      369.4 secs

     End of self-consistent calculation

          k = 0.0000 0.0000 0.0000 (  4201 PWs)   bands (ev):

    -7.7160  -7.7160  -4.4182  -4.4182  -4.4169  -4.4169   2.6283   2.6283
     2.8206   2.8206   3.2537   3.2537   4.2131   4.2131   4.2613   4.2613
     5.1177   5.1177   6.5253   6.5253   7.1446   7.1446   7.6547   7.6547
    10.8685  10.8702

     occupation numbers 
     1.0000   1.0000   1.0000   1.0000   1.0000   1.0000   1.0000   1.0000
     1.0000   1.0000   1.0000   1.0000   1.0000   1.0000   1.0000   1.0000
     1.0000   1.0000   0.0000   0.0000   0.0000   0.0000   0.0000   0.0000
     0.0000   0.0000

          k = 0.0000 0.0000 0.1259 (  4165 PWs)   bands (ev):

    -7.6163  -7.6151  -5.3442  -5.3412  -3.4683  -3.4668   2.4158   2.4171
     2.8033   2.9845   3.0606   3.5035   4.1770   4.2707   4.3537   4.4032
     5.0328   5.1389   6.4014   6.4344   6.9159   7.0001   7.3734   7.3910
    10.5525  10.5895

     occupation numbers 
     1.0000   1.0000   1.0000   1.0000   1.0000   1.0000   1.0000   1.0000
     1.0000   1.0000   1.0000   1.0000   1.0000   1.0000   1.0000   1.0000
     1.0000   1.0000   0.0001   0.0000   0.0000   0.0000   0.0000   0.0000
     0.0000   0.0000

          k = 0.0000 0.0000 0.2518 (  4183 PWs)   bands (ev):

    -7.3180  -7.3157  -6.1623  -6.1589  -2.6628  -2.6593   1.9647   2.0065
     2.9587   3.0535   3.1194   3.5301   4.2972   4.4268   4.4527   4.6750
     4.8735   5.0885   6.2718   6.2991   6.5524   6.7246   6.8355   6.9156
    10.1212  10.1388

     occupation numbers 
     1.0000   1.0000   1.0000   1.0000   1.0000   1.0000   1.0000   1.0000
     1.0000   1.0000   1.0000   1.0000   1.0000   1.0000   1.0000   1.0000
     1.0000   1.0000   0.0069   0.0030   0.0000   0.0000   0.0000   0.0000
     0.0000   0.0000

          k = 0.0000 0.0000-0.3778 (  4190 PWs)   bands (ev):

    -6.8286  -6.8286  -6.8255  -6.8255  -2.3144  -2.3144   1.7554   1.7554
     3.0536   3.0536   3.3369   3.3369   4.4390   4.4390   4.6566   4.6566
     4.9325   4.9325   6.3232   6.3232   6.4094   6.4094   6.6448   6.6448
     9.9443   9.9443

     occupation numbers 
     1.0000   1.0000   1.0000   1.0000   1.0000   1.0000   1.0000   1.0000
     1.0000   1.0000   1.0000   1.0000   1.0000   1.0000   1.0000   1.0000
     1.0000   1.0000   0.0014   0.0014   0.0000   0.0000   0.0000   0.0000
     0.0000   0.0000

          k = 0.0000 0.1925 0.0000 (  4159 PWs)   bands (ev):

    -7.5394  -7.5391  -4.4871  -4.4815  -4.3707  -4.3666   1.6619   1.7583
     2.2107   2.3612   2.6990   2.9364   4.4305   4.6000   4.8120   4.8968
     5.0879   5.1989   6.6244   6.7034   6.8656   6.9484   7.4139   7.5149
    10.3020  10.3416

     occupation numbers 
     1.0000   1.0000   1.0000   1.0000   1.0000   1.0000   1.0000   1.0000
     1.0000   1.0000   1.0000   1.0000   1.0000   1.0000   1.0000   1.0000
     1.0000   1.0000   0.0000   0.0000   0.0000   0.0000   0.0000   0.0000
     0.0000   0.0000

          k = 0.0000 0.1925 0.1259 (  4170 PWs)   bands (ev):

    -7.4411  -7.4396  -5.2889  -5.2857  -3.5713  -3.5685   1.7544   1.8270
     1.9205   2.0541   2.7959   2.9858   4.5368   4.6680   4.8429   5.0384
     5.2318   5.3246   6.4793   6.5091   6.6496   6.7881   7.2874   7.3475
     9.9008   9.9096

     occupation numbers 
     1.0000   1.0000   1.0000   1.0000   1.0000   1.0000   1.0000   1.0000
     1.0000   1.0000   1.0000   1.0000   1.0000   1.0000   1.0000   1.0000
     1.0000   1.0000   0.0000   0.0000   0.0000   0.0000   0.0000   0.0000
     0.0000   0.0000

          k = 0.0000 0.1925 0.2518 (  4163 PWs)   bands (ev):

    -7.1503  -7.1475  -6.0521  -6.0482  -2.9259  -2.9216   1.6191   1.7137
     2.0924   2.2699   2.8977   3.0783   4.3468   4.4168   4.5590   4.6584
     4.8189   4.9167   6.5210   6.6324   6.8382   6.9927   7.5555   7.5683
     9.9292   9.9550

     occupation numbers 
     1.0000   1.0000   1.0000   1.0000   1.0000   1.0000   1.0000   1.0000
     1.0000   1.0000   1.0000   1.0000   1.0000   1.0000   1.0000   1.0000
     1.0000   1.0000   0.0000   0.0000   0.0000   0.0000   0.0000   0.0000
     0.0000   0.0000

          k = 0.0000 0.1925-0.3778 (  4168 PWs)   bands (ev):

    -6.6988  -6.6971  -6.6603  -6.6589  -2.6908  -2.6901   1.5919   1.6738
     2.5436   2.7857   2.8530   3.0198   3.8327   4.0570   4.1562   4.3075
     4.5002   4.6989   6.6502   6.7956   7.2072   7.3443   7.7461   7.7513
    10.3537  10.3747

     occupation numbers 
     1.0000   1.0000   1.0000   1.0000   1.0000   1.0000   1.0000   1.0000
     1.0000   1.0000   1.0000   1.0000   1.0000   1.0000   1.0000   1.0000
     1.0000   1.0000   0.0000   0.0000   0.0000   0.0000   0.0000   0.0000
     0.0000   0.0000

          k = 0.0000 0.3849 0.0000 (  4144 PWs)   bands (ev):

    -7.0827  -7.0820  -4.7966  -4.7913  -4.2608  -4.2570   0.9834   1.0400
     1.5448   1.7095   2.2343   2.4508   3.4314   3.5073   4.7196   4.8706
     4.9550   5.1010   6.7456   6.8497   6.9743   7.0137   8.6264   8.6426
     9.2948   9.3231

     occupation numbers 
     1.0000   1.0000   1.0000   1.0000   1.0000   1.0000   1.0000   1.0000
     1.0000   1.0000   1.0000   1.0000   1.0000   1.0000   1.0000   1.0000
     1.0000   1.0000   0.0000   0.0000   0.0000   0.0000   0.0000   0.0000
     0.0000   0.0000

          k = 0.0000 0.3849 0.1259 (  4142 PWs)   bands (ev):

    -6.9870  -6.9845  -5.2673  -5.2630  -3.8341  -3.8279   0.8262   0.8546
     1.3116   1.4124   2.3502   2.4898   4.1324   4.3850   4.6066   4.8754
     4.8967   5.1043   6.6768   6.7347   7.1512   7.2552   7.7664   7.7937
     9.2252   9.2838

     occupation numbers 
     1.0000   1.0000   1.0000   1.0000   1.0000   1.0000   1.0000   1.0000
     1.0000   1.0000   1.0000   1.0000   1.0000   1.0000   1.0000   1.0000
     1.0000   1.0000   0.0000   0.0000   0.0000   0.0000   0.0000   0.0000
     0.0000   0.0000

          k = 0.0000 0.3849 0.2518 (  4149 PWs)   bands (ev):

    -6.7210  -6.7162  -5.8308  -5.8245  -3.5345  -3.5283   0.6603   0.7046
     1.5481   1.6663   2.4933   2.6075   3.8594   4.0238   4.2420   4.3473
     5.6613   5.7146   6.5543   6.6284   7.1910   7.3219   7.6555   7.9903
     9.6997   9.8307

     occupation numbers 
     1.0000   1.0000   1.0000   1.0000   1.0000   1.0000   1.0000   1.0000
     1.0000   1.0000   1.0000   1.0000   1.0000   1.0000   1.0000   1.0000
     0.9999   0.9996   0.0000   0.0000   0.0000   0.0000   0.0000   0.0000
     0.0000   0.0000

          k = 0.0000 0.3849-0.3778 (  4142 PWs)   bands (ev):

    -6.4080  -6.4061  -6.2243  -6.2223  -3.5008  -3.4993   0.7501   0.7914
     2.0416   2.1655   2.3888   2.5022   3.6146   3.6795   3.9131   3.9883
     4.8616   4.9564   7.1015   7.3041   7.7632   7.8745   8.1432   8.3500
    10.3708  10.5136

     occupation numbers 
     1.0000   1.0000   1.0000   1.0000   1.0000   1.0000   1.0000   1.0000
     1.0000   1.0000   1.0000   1.0000   1.0000   1.0000   1.0000   1.0000
     1.0000   1.0000   0.0000   0.0000   0.0000   0.0000   0.0000   0.0000
     0.0000   0.0000

          k = 0.0000-0.5774 0.0000 (  4126 PWs)   bands (ev):

    -6.7411  -6.7411  -5.1043  -5.1043  -4.1978  -4.1978   0.9624   0.9624
     1.4452   1.4452   2.2734   2.2734   2.4835   2.4835   4.7166   4.7166
     4.9963   4.9963   6.8000   6.8000   6.9158   6.9158   8.9216   8.9216
     9.5712   9.5712

     occupation numbers 
     1.0000   1.0000   1.0000   1.0000   1.0000   1.0000   1.0000   1.0000
     1.0000   1.0000   1.0000   1.0000   1.0000   1.0000   1.0000   1.0000
     1.0000   1.0000   0.0000   0.0000   0.0000   0.0000   0.0000   0.0000
     0.0000   0.0000

          k = 0.0000-0.5774 0.1259 (  4124 PWs)   bands (ev):

    -6.6672  -6.6635  -5.2668  -5.2626  -4.1432  -4.1353   0.9149   0.9544
     1.1211   1.2322   2.1931   2.3505   3.1106   3.2922   4.3537   4.5223
     4.6722   4.7582   6.7954   6.8397   7.3687   7.5873   9.0358   9.0541
     9.2672   9.3785

     occupation numbers 
     1.0000   1.0000   1.0000   1.0000   1.0000   1.0000   1.0000   1.0000
     1.0000   1.0000   1.0000   1.0000   1.0000   1.0000   1.0000   1.0000
     1.0000   1.0000   0.0000   0.0000   0.0000   0.0000   0.0000   0.0000
     0.0000   0.0000

          k = 0.0000-0.5774 0.2518 (  4138 PWs)   bands (ev):

    -6.4563  -6.4498  -5.6226  -5.6150  -4.0459  -4.0390   0.4052   0.4358
     1.5515   1.6593   2.3005   2.4136   3.5209   3.8000   3.9768   4.1753
     4.6734   4.8650   7.1485   7.2413   7.7650   7.8436   8.1314   8.4590
     9.9919  10.2018

     occupation numbers 
     1.0000   1.0000   1.0000   1.0000   1.0000   1.0000   1.0000   1.0000
     1.0000   1.0000   1.0000   1.0000   1.0000   1.0000   1.0000   1.0000
     1.0000   1.0000   0.0000   0.0000   0.0000   0.0000   0.0000   0.0000
     0.0000   0.0000

          k = 0.0000-0.5774-0.3778 (  4152 PWs)   bands (ev):

    -6.2401  -6.2401  -5.8941  -5.8941  -3.9990  -3.9990   0.2221   0.2221
     2.0656   2.0656   2.1916   2.1916   3.4792   3.4792   3.8433   3.8433
     5.6891   5.6891   6.6563   6.6563   7.6778   7.6778   8.5181   8.5181
    10.4684  10.4684

     occupation numbers 
     1.0000   1.0000   1.0000   1.0000   1.0000   1.0000   1.0000   1.0000
     1.0000   1.0000   1.0000   1.0000   1.0000   1.0000   1.0000   1.0000
     0.9998   0.9998   0.0000   0.0000   0.0000   0.0000   0.0000   0.0000
     0.0000   0.0000

          k = 0.1667 0.0962 0.0000 (  4159 PWs)   bands (ev):

    -7.5394  -7.5391  -4.4871  -4.4815  -4.3707  -4.3666   1.6619   1.7583
     2.2107   2.3612   2.6991   2.9364   4.4305   4.6000   4.8120   4.8967
     5.0879   5.1989   6.6244   6.7034   6.8656   6.9484   7.4140   7.5149
    10.3020  10.3415

     occupation numbers 
     1.0000   1.0000   1.0000   1.0000   1.0000   1.0000   1.0000   1.0000
     1.0000   1.0000   1.0000   1.0000   1.0000   1.0000   1.0000   1.0000
     1.0000   1.0000   0.0000   0.0000   0.0000   0.0000   0.0000   0.0000
     0.0000   0.0000

          k = 0.1667 0.0962 0.1259 (  4170 PWs)   bands (ev):

    -7.4437  -7.4423  -5.2614  -5.2582  -3.6272  -3.6244   1.7298   1.8183
     2.4261   2.6219   2.7009   3.0600   4.1458   4.2004   4.2913   4.4651
     4.7090   4.8948   6.8709   6.9692   7.2476   7.3718   7.6537   7.7514
    10.5830  10.6227

     occupation numbers 
     1.0000   1.0000   1.0000   1.0000   1.0000   1.0000   1.0000   1.0000
     1.0000   1.0000   1.0000   1.0000   1.0000   1.0000   1.0000   1.0000
     1.0000   1.0000   0.0000   0.0000   0.0000   0.0000   0.0000   0.0000
     0.0000   0.0000

          k = 0.1667 0.0962 0.2518 (  4163 PWs)   bands (ev):

    -7.1561  -7.1534  -6.0349  -6.0311  -2.9749  -2.9706   1.7448   1.8143
     2.5500   2.7123   2.9583   3.2023   3.6462   3.8672   4.0679   4.1544
     4.5335   4.6822   6.8893   6.9330   7.5075   7.6002   7.6595   7.7267
    10.5294  10.5468

     occupation numbers 
     1.0000   1.0000   1.0000   1.0000   1.0000   1.0000   1.0000   1.0000
     1.0000   1.0000   1.0000   1.0000   1.0000   1.0000   1.0000   1.0000
     1.0000   1.0000   0.0000   0.0000   0.0000   0.0000   0.0000   0.0000
     0.0000   0.0000

          k = 0.1667 0.0962-0.3778 (  4168 PWs)   bands (ev):

    -6.6989  -6.6971  -6.6603  -6.6589  -2.6908  -2.6901   1.5919   1.6738
     2.5436   2.7857   2.8530   3.0199   3.8327   4.0571   4.1562   4.3075
     4.5002   4.6990   6.6502   6.7956   7.2072   7.3443   7.7460   7.7512
    10.3537  10.3751

     occupation numbers 
     1.0000   1.0000   1.0000   1.0000   1.0000   1.0000   1.0000   1.0000
     1.0000   1.0000   1.0000   1.0000   1.0000   1.0000   1.0000   1.0000
     1.0000   1.0000   0.0000   0.0000   0.0000   0.0000   0.0000   0.0000
     0.0000   0.0000

          k = 0.1667 0.2887 0.0000 (  4165 PWs)   bands (ev):

    -7.2184  -7.2178  -4.6233  -4.6134  -4.3636  -4.3553   1.1684   1.2831
     1.4261   1.5354   2.7593   2.9238   3.9328   4.0871   4.2221   4.2902
     4.6902   4.7387   7.3675   7.4036   7.4542   7.4909   7.8095   7.8270
    10.1613  10.1674

     occupation numbers 
     1.0000   1.0000   1.0000   1.0000   1.0000   1.0000   1.0000   1.0000
     1.0000   1.0000   1.0000   1.0000   1.0000   1.0000   1.0000   1.0000
     1.0000   1.0000   0.0000   0.0000   0.0000   0.0000   0.0000   0.0000
     0.0000   0.0000

          k = 0.1667 0.2887 0.1259 (  4157 PWs)   bands (ev):

    -7.1277  -7.1256  -5.1901  -5.1862  -3.8629  -3.8577   1.1713   1.2345
     1.5926   1.6539   2.6725   2.8111   3.5083   3.6018   4.2610   4.3788
     5.3038   5.3703   6.7531   6.8217   7.5050   7.5481   8.1061   8.1380
    10.1328  10.1625

     occupation numbers 
     1.0000   1.0000   1.0000   1.0000   1.0000   1.0000   1.0000   1.0000
     1.0000   1.0000   1.0000   1.0000   1.0000   1.0000   1.0000   1.0000
     1.0000   1.0000   0.0000   0.0000   0.0000   0.0000   0.0000   0.0000
     0.0000   0.0000

          k = 0.1667 0.2887 0.2518 (  4135 PWs)   bands (ev):

    -6.8591  -6.8553  -5.8486  -5.8435  -3.4296  -3.4238   1.1793   1.2720
     1.6827   1.8169   2.5132   2.6276   3.2156   3.3953   4.7081   4.8337
     5.0590   5.1744   6.6871   6.7410   7.5143   7.5257   8.2942   8.3477
    10.3180  10.3383

     occupation numbers 
     1.0000   1.0000   1.0000   1.0000   1.0000   1.0000   1.0000   1.0000
     1.0000   1.0000   1.0000   1.0000   1.0000   1.0000   1.0000   1.0000
     1.0000   1.0000   0.0000   0.0000   0.0000   0.0000   0.0000   0.0000
     0.0000   0.0000

          k = 0.1667 0.2887-0.3778 (  4148 PWs)   bands (ev):

    -6.4695  -6.4666  -6.3732  -6.3702  -3.2662  -3.2647   1.1591   1.2558
     1.9687   1.9797   2.0946   2.1969   3.7816   3.9416   4.3382   4.3722
     5.0118   5.0979   6.5956   6.6751   7.9661   7.9830   8.1732   8.1928
    10.5246  10.5643

     occupation numbers 
     1.0000   1.0000   1.0000   1.0000   1.0000   1.0000   1.0000   1.0000
     1.0000   1.0000   1.0000   1.0000   1.0000   1.0000   1.0000   1.0000
     1.0000   1.0000   0.0000   0.0000   0.0000   0.0000   0.0000   0.0000
     0.0000   0.0000

          k = 0.1667 0.4811 0.0000 (  4156 PWs)   bands (ev):

    -6.7664  -6.7656  -4.9261  -4.9202  -4.3848  -4.3795   1.0303   1.1034
     1.2953   1.4049   2.3539   2.5517   2.8591   2.9801   3.8725   3.9619
     4.1188   4.1593   7.6140   7.6515   7.9593   7.9727   9.0750   9.0845
     9.7613   9.7777

     occupation numbers 
     1.0000   1.0000   1.0000   1.0000   1.0000   1.0000   1.0000   1.0000
     1.0000   1.0000   1.0000   1.0000   1.0000   1.0000   1.0000   1.0000
     1.0000   1.0000   0.0000   0.0000   0.0000   0.0000   0.0000   0.0000
     0.0000   0.0000

          k = 0.1667 0.4811 0.1259 (  4147 PWs)   bands (ev):

    -6.6834  -6.6797  -5.2253  -5.2202  -4.1583  -4.1497   0.7633   0.7959
     1.2582   1.3611   2.2759   2.4076   3.0825   3.2517   3.9503   4.0850
     4.7540   4.8777   7.1704   7.2338   8.1924   8.2229   8.3434   8.4098
     9.9012   9.9547

     occupation numbers 
     1.0000   1.0000   1.0000   1.0000   1.0000   1.0000   1.0000   1.0000
     1.0000   1.0000   1.0000   1.0000   1.0000   1.0000   1.0000   1.0000
     1.0000   1.0000   0.0000   0.0000   0.0000   0.0000   0.0000   0.0000
     0.0000   0.0000

          k = 0.1667 0.4811 0.2518 (  4145 PWs)   bands (ev):

    -6.4516  -6.4448  -5.6633  -5.6553  -3.9607  -3.9531   0.4987   0.5415
     1.2338   1.3090   2.0115   2.0852   3.3334   3.4604   4.8650   5.0723
     5.4309   5.6851   6.5588   6.6190   7.3132   7.3832   8.3699   8.4797
    10.2294  10.3058

     occupation numbers 
     1.0000   1.0000   1.0000   1.0000   1.0000   1.0000   1.0000   1.0000
     1.0000   1.0000   1.0000   1.0000   1.0000   1.0000   1.0000   1.0000
     1.0000   0.9999   0.0000   0.0000   0.0000   0.0000   0.0000   0.0000
     0.0000   0.0000

          k = 0.1667 0.4811-0.3778 (  4140 PWs)   bands (ev):

    -6.1922  -6.1899  -5.9807  -5.9777  -3.9152  -3.9136   0.4852   0.5127
     1.4090   1.4371   1.5505   1.6320   4.1641   4.2674   4.6459   4.6851
     5.4536   5.5255   6.7561   6.8593   7.4329   7.4972   8.0511   8.0984
    10.7134  10.7483

     occupation numbers 
     1.0000   1.0000   1.0000   1.0000   1.0000   1.0000   1.0000   1.0000
     1.0000   1.0000   1.0000   1.0000   1.0000   1.0000   1.0000   1.0000
     1.0000   1.0000   0.0000   0.0000   0.0000   0.0000   0.0000   0.0000
     0.0000   0.0000

          k = 0.1667-0.4811 0.0000 (  4156 PWs)   bands (ev):

    -6.7664  -6.7656  -4.9261  -4.9202  -4.3848  -4.3795   1.0303   1.1034
     1.2953   1.4049   2.3540   2.5517   2.8591   2.9800   3.8725   3.9619
     4.1188   4.1593   7.6139   7.6515   7.9592   7.9727   9.0750   9.0845
     9.7613   9.7777

     occupation numbers 
     1.0000   1.0000   1.0000   1.0000   1.0000   1.0000   1.0000   1.0000
     1.0000   1.0000   1.0000   1.0000   1.0000   1.0000   1.0000   1.0000
     1.0000   1.0000   0.0000   0.0000   0.0000   0.0000   0.0000   0.0000
     0.0000   0.0000

          k = 0.1667-0.4811 0.1259 (  4147 PWs)   bands (ev):

    -6.6942  -6.6906  -5.1415  -5.1368  -4.2676  -4.2588   0.9512   1.0019
     1.3458   1.4203   2.3159   2.4827   2.7213   3.1003   3.5502   3.7440
     4.9842   5.0487   7.0289   7.0874   8.0814   8.1330   9.1313   9.1542
    10.0161  10.0707

     occupation numbers 
     1.0000   1.0000   1.0000   1.0000   1.0000   1.0000   1.0000   1.0000
     1.0000   1.0000   1.0000   1.0000   1.0000   1.0000   1.0000   1.0000
     1.0000   1.0000   0.0000   0.0000   0.0000   0.0000   0.0000   0.0000
     0.0000   0.0000

          k = 0.1667-0.4811 0.2518 (  4145 PWs)   bands (ev):

    -6.4746  -6.4685  -5.5981  -5.5910  -4.0398  -4.0322   0.7445   0.8179
     1.1327   1.1994   1.9690   2.0436   3.4468   3.6575   4.3338   4.4753
     5.2304   5.3624   6.8199   6.8494   7.9506   8.0179   8.4423   8.4829
    10.4956  10.5404

     occupation numbers 
     1.0000   1.0000   1.0000   1.0000   1.0000   1.0000   1.0000   1.0000
     1.0000   1.0000   1.0000   1.0000   1.0000   1.0000   1.0000   1.0000
     1.0000   1.0000   0.0000   0.0000   0.0000   0.0000   0.0000   0.0000
     0.0000   0.0000

          k = 0.1667-0.4811-0.3778 (  4140 PWs)   bands (ev):

    -6.1921  -6.1899  -5.9807  -5.9777  -3.9152  -3.9136   0.4852   0.5127
     1.4090   1.4371   1.5506   1.6320   4.1641   4.2674   4.6459   4.6851
     5.4535   5.5255   6.7561   6.8593   7.4328   7.4972   8.0511   8.0984
    10.7132  10.7483

     occupation numbers 
     1.0000   1.0000   1.0000   1.0000   1.0000   1.0000   1.0000   1.0000
     1.0000   1.0000   1.0000   1.0000   1.0000   1.0000   1.0000   1.0000
     1.0000   1.0000   0.0000   0.0000   0.0000   0.0000   0.0000   0.0000
     0.0000   0.0000

          k = 0.1667-0.2887 0.0000 (  4165 PWs)   bands (ev):

    -7.2184  -7.2178  -4.6233  -4.6134  -4.3636  -4.3553   1.1683   1.2830
     1.4261   1.5353   2.7593   2.9238   3.9328   4.0870   4.2221   4.2902
     4.6902   4.7387   7.3674   7.4036   7.4541   7.4909   7.8094   7.8270
    10.1612  10.1673

     occupation numbers 
     1.0000   1.0000   1.0000   1.0000   1.0000   1.0000   1.0000   1.0000
     1.0000   1.0000   1.0000   1.0000   1.0000   1.0000   1.0000   1.0000
     1.0000   1.0000   0.0000   0.0000   0.0000   0.0000   0.0000   0.0000
     0.0000   0.0000

          k = 0.1667-0.2887 0.1259 (  4157 PWs)   bands (ev):

    -7.1277  -7.1256  -5.1901  -5.1862  -3.8629  -3.8577   1.1712   1.2345
     1.5926   1.6539   2.6725   2.8111   3.5083   3.6018   4.2609   4.3788
     5.3038   5.3703   6.7531   6.8216   7.5049   7.5480   8.1062   8.1380
    10.1330  10.1627

     occupation numbers 
     1.0000   1.0000   1.0000   1.0000   1.0000   1.0000   1.0000   1.0000
     1.0000   1.0000   1.0000   1.0000   1.0000   1.0000   1.0000   1.0000
     1.0000   1.0000   0.0000   0.0000   0.0000   0.0000   0.0000   0.0000
     0.0000   0.0000

          k = 0.1667-0.2887 0.2518 (  4135 PWs)   bands (ev):

    -6.8591  -6.8553  -5.8486  -5.8435  -3.4296  -3.4238   1.1793   1.2720
     1.6827   1.8169   2.5132   2.6276   3.2156   3.3953   4.7080   4.8336
     5.0589   5.1744   6.6870   6.7410   7.5143   7.5257   8.2942   8.3478
    10.3179  10.3383

     occupation numbers 
     1.0000   1.0000   1.0000   1.0000   1.0000   1.0000   1.0000   1.0000
     1.0000   1.0000   1.0000   1.0000   1.0000   1.0000   1.0000   1.0000
     1.0000   1.0000   0.0000   0.0000   0.0000   0.0000   0.0000   0.0000
     0.0000   0.0000

          k = 0.1667-0.2887-0.3778 (  4148 PWs)   bands (ev):

    -6.4695  -6.4665  -6.3732  -6.3702  -3.2662  -3.2648   1.1591   1.2558
     1.9687   1.9797   2.0947   2.1969   3.7815   3.9415   4.3382   4.3722
     5.0117   5.0978   6.5955   6.6750   7.9661   7.9830   8.1732   8.1929
    10.5247  10.5643

     occupation numbers 
     1.0000   1.0000   1.0000   1.0000   1.0000   1.0000   1.0000   1.0000
     1.0000   1.0000   1.0000   1.0000   1.0000   1.0000   1.0000   1.0000
     1.0000   1.0000   0.0000   0.0000   0.0000   0.0000   0.0000   0.0000
     0.0000   0.0000

          k = 0.1667-0.0962 0.0000 (  4159 PWs)   bands (ev):

    -7.5394  -7.5391  -4.4871  -4.4815  -4.3707  -4.3666   1.6619   1.7583
     2.2107   2.3612   2.6990   2.9364   4.4305   4.6000   4.8120   4.8968
     5.0879   5.1989   6.6244   6.7034   6.8656   6.9484   7.4139   7.5148
    10.3020  10.3415

     occupation numbers 
     1.0000   1.0000   1.0000   1.0000   1.0000   1.0000   1.0000   1.0000
     1.0000   1.0000   1.0000   1.0000   1.0000   1.0000   1.0000   1.0000
     1.0000   1.0000   0.0000   0.0000   0.0000   0.0000   0.0000   0.0000
     0.0000   0.0000

          k = 0.1667-0.0962 0.1259 (  4170 PWs)   bands (ev):

    -7.4411  -7.4396  -5.2889  -5.2857  -3.5713  -3.5685   1.7544   1.8270
     1.9206   2.0541   2.7959   2.9858   4.5368   4.6680   4.8429   5.0384
     5.2318   5.3246   6.4793   6.5091   6.6496   6.7881   7.2874   7.3475
     9.9008   9.9096

     occupation numbers 
     1.0000   1.0000   1.0000   1.0000   1.0000   1.0000   1.0000   1.0000
     1.0000   1.0000   1.0000   1.0000   1.0000   1.0000   1.0000   1.0000
     1.0000   1.0000   0.0000   0.0000   0.0000   0.0000   0.0000   0.0000
     0.0000   0.0000

          k = 0.1667-0.0962 0.2518 (  4163 PWs)   bands (ev):

    -7.1503  -7.1475  -6.0521  -6.0482  -2.9259  -2.9216   1.6191   1.7138
     2.0924   2.2699   2.8977   3.0783   4.3468   4.4168   4.5590   4.6583
     4.8189   4.9167   6.5210   6.6324   6.8382   6.9927   7.5556   7.5684
     9.9292   9.9550

     occupation numbers 
     1.0000   1.0000   1.0000   1.0000   1.0000   1.0000   1.0000   1.0000
     1.0000   1.0000   1.0000   1.0000   1.0000   1.0000   1.0000   1.0000
     1.0000   1.0000   0.0000   0.0000   0.0000   0.0000   0.0000   0.0000
     0.0000   0.0000

          k = 0.1667-0.0962-0.3778 (  4168 PWs)   bands (ev):

    -6.6988  -6.6971  -6.6603  -6.6589  -2.6908  -2.6901   1.5919   1.6738
     2.5436   2.7857   2.8530   3.0198   3.8327   4.0570   4.1562   4.3075
     4.5002   4.6989   6.6502   6.7956   7.2072   7.3443   7.7462   7.7514
    10.3536  10.3746

     occupation numbers 
     1.0000   1.0000   1.0000   1.0000   1.0000   1.0000   1.0000   1.0000
     1.0000   1.0000   1.0000   1.0000   1.0000   1.0000   1.0000   1.0000
     1.0000   1.0000   0.0000   0.0000   0.0000   0.0000   0.0000   0.0000
     0.0000   0.0000

          k = 0.3333 0.1924 0.0000 (  4144 PWs)   bands (ev):

    -7.0827  -7.0820  -4.7966  -4.7914  -4.2607  -4.2569   0.9834   1.0400
     1.5448   1.7095   2.2343   2.4509   3.4314   3.5073   4.7196   4.8707
     4.9550   5.1010   6.7456   6.8497   6.9744   7.0137   8.6263   8.6426
     9.2948   9.3231

     occupation numbers 
     1.0000   1.0000   1.0000   1.0000   1.0000   1.0000   1.0000   1.0000
     1.0000   1.0000   1.0000   1.0000   1.0000   1.0000   1.0000   1.0000
     1.0000   1.0000   0.0000   0.0000   0.0000   0.0000   0.0000   0.0000
     0.0000   0.0000

          k = 0.3333 0.1924 0.1259 (  4142 PWs)   bands (ev):

    -7.0043  -7.0019  -5.1093  -5.1055  -4.0804  -4.0744   1.2506   1.3651
     1.7273   1.8487   2.4566   2.6878   2.7204   2.9472   4.2531   4.5031
     4.6960   4.8591   6.8723   6.9734   7.5546   7.7885   9.0243   9.0367
     9.8759   9.9868

     occupation numbers 
     1.0000   1.0000   1.0000   1.0000   1.0000   1.0000   1.0000   1.0000
     1.0000   1.0000   1.0000   1.0000   1.0000   1.0000   1.0000   1.0000
     1.0000   1.0000   0.0000   0.0000   0.0000   0.0000   0.0000   0.0000
     0.0000   0.0000

          k = 0.3333 0.1924 0.2518 (  4149 PWs)   bands (ev):

    -6.7586  -6.7545  -5.7209  -5.7156  -3.7156  -3.7096   1.1236   1.1979
     1.8704   2.0276   2.4612   2.6019   3.2150   3.5758   3.8215   3.9779
     4.3112   4.5318   7.2760   7.3300   8.0961   8.2530   8.7265   8.7402
    10.5003  10.6088

     occupation numbers 
     1.0000   1.0000   1.0000   1.0000   1.0000   1.0000   1.0000   1.0000
     1.0000   1.0000   1.0000   1.0000   1.0000   1.0000   1.0000   1.0000
     1.0000   1.0000   0.0000   0.0000   0.0000   0.0000   0.0000   0.0000
     0.0000   0.0000

          k = 0.3333 0.1924-0.3778 (  4142 PWs)   bands (ev):

    -6.4080  -6.4062  -6.2243  -6.2223  -3.5007  -3.4993   0.7501   0.7914
     2.0416   2.1655   2.3888   2.5023   3.6147   3.6795   3.9132   3.9884
     4.8616   4.9564   7.1015   7.3041   7.7631   7.8745   8.1432   8.3501
    10.3708  10.5136

     occupation numbers 
     1.0000   1.0000   1.0000   1.0000   1.0000   1.0000   1.0000   1.0000
     1.0000   1.0000   1.0000   1.0000   1.0000   1.0000   1.0000   1.0000
     1.0000   1.0000   0.0000   0.0000   0.0000   0.0000   0.0000   0.0000
     0.0000   0.0000

          k = 0.3333 0.3849 0.0000 (  4156 PWs)   bands (ev):

    -6.7664  -6.7656  -4.9261  -4.9202  -4.3848  -4.3795   1.0303   1.1034
     1.2953   1.4049   2.3540   2.5517   2.8591   2.9800   3.8725   3.9619
     4.1188   4.1593   7.6140   7.6515   7.9593   7.9727   9.0750   9.0844
     9.7614   9.7778

     occupation numbers 
     1.0000   1.0000   1.0000   1.0000   1.0000   1.0000   1.0000   1.0000
     1.0000   1.0000   1.0000   1.0000   1.0000   1.0000   1.0000   1.0000
     1.0000   1.0000   0.0000   0.0000   0.0000   0.0000   0.0000   0.0000
     0.0000   0.0000

          k = 0.3333 0.3849 0.1259 (  4147 PWs)   bands (ev):

    -6.6942  -6.6907  -5.1415  -5.1368  -4.2676  -4.2588   0.9513   1.0019
     1.3458   1.4203   2.3159   2.4827   2.7213   3.1003   3.5502   3.7440
     4.9842   5.0487   7.0290   7.0874   8.0815   8.1331   9.1313   9.1541
    10.0162  10.0708

     occupation numbers 
     1.0000   1.0000   1.0000   1.0000   1.0000   1.0000   1.0000   1.0000
     1.0000   1.0000   1.0000   1.0000   1.0000   1.0000   1.0000   1.0000
     1.0000   1.0000   0.0000   0.0000   0.0000   0.0000   0.0000   0.0000
     0.0000   0.0000

          k = 0.3333 0.3849 0.2518 (  4145 PWs)   bands (ev):

    -6.4746  -6.4685  -5.5981  -5.5910  -4.0397  -4.0322   0.7445   0.8179
     1.1327   1.1994   1.9690   2.0436   3.4468   3.6575   4.3338   4.4754
     5.2305   5.3624   6.8199   6.8494   7.9506   8.0180   8.4422   8.4829
    10.4956  10.5404

     occupation numbers 
     1.0000   1.0000   1.0000   1.0000   1.0000   1.0000   1.0000   1.0000
     1.0000   1.0000   1.0000   1.0000   1.0000   1.0000   1.0000   1.0000
     1.0000   1.0000   0.0000   0.0000   0.0000   0.0000   0.0000   0.0000
     0.0000   0.0000

          k = 0.3333 0.3849-0.3778 (  4140 PWs)   bands (ev):

    -6.1922  -6.1899  -5.9806  -5.9777  -3.9152  -3.9136   0.4852   0.5127
     1.4090   1.4371   1.5506   1.6320   4.1642   4.2674   4.6459   4.6851
     5.4536   5.5255   6.7561   6.8593   7.4328   7.4971   8.0511   8.0985
    10.7134  10.7482

     occupation numbers 
     1.0000   1.0000   1.0000   1.0000   1.0000   1.0000   1.0000   1.0000
     1.0000   1.0000   1.0000   1.0000   1.0000   1.0000   1.0000   1.0000
     1.0000   1.0000   0.0000   0.0000   0.0000   0.0000   0.0000   0.0000
     0.0000   0.0000

          k = 0.3333 0.5773 0.0000 (  4164 PWs)   bands (ev):

    -6.5772  -6.5772  -4.7535  -4.7506  -4.7506  -4.7393   1.1672   1.3557
     1.3557   1.3678   2.6829   2.6829   2.7825   2.9732   2.9732   3.0127
     3.3721   3.3721   8.5861   8.6277   8.7914   8.7914   9.0310   9.0311
    10.7399  10.7399

     occupation numbers 
     1.0000   1.0000   1.0000   1.0000   1.0000   1.0000   1.0000   1.0000
     1.0000   1.0000   1.0000   1.0000   1.0000   1.0000   1.0000   1.0000
     1.0000   1.0000   0.0000   0.0000   0.0000   0.0000   0.0000   0.0000
     0.0000   0.0000

          k = 0.3333 0.5773 0.1259 (  4158 PWs)   bands (ev):

    -6.5053  -6.5007  -5.1414  -5.1378  -4.4234  -4.4135   0.8748   0.8880
     1.2476   1.4139   2.0544   2.1626   2.7796   2.9646   3.7674   3.8082
     4.1485   4.3433   8.0704   8.2263   8.5235   8.6388   8.6515   8.6797
    10.9363  10.9832

     occupation numbers 
     1.0000   1.0000   1.0000   1.0000   1.0000   1.0000   1.0000   1.0000
     1.0000   1.0000   1.0000   1.0000   1.0000   1.0000   1.0000   1.0000
     1.0000   1.0000   0.0000   0.0000   0.0000   0.0000   0.0000   0.0000
     0.0000   0.0000

          k = 0.3333 0.5773 0.2518 (  4152 PWs)   bands (ev):

    -6.2929  -6.2846  -5.5637  -5.5547  -4.1885  -4.1799   0.6882   0.7412
     0.8517   0.9110   1.3277   1.4388   3.8152   3.9481   4.8392   4.9927
     5.1823   5.4754   6.9744   7.0890   7.7665   7.8627   7.9737   7.9988
    11.5672  11.5758

     occupation numbers 
     1.0000   1.0000   1.0000   1.0000   1.0000   1.0000   1.0000   1.0000
     1.0000   1.0000   1.0000   1.0000   1.0000   1.0000   1.0000   1.0000
     1.0000   1.0000   0.0000   0.0000   0.0000   0.0000   0.0000   0.0000
     0.0000   0.0000

          k = 0.3333 0.5773-0.3778 (  4134 PWs)   bands (ev):

    -5.9651  -5.9651  -5.9583  -5.9513  -4.0962  -4.0962   0.6762   0.6762
     0.8253   0.8783   0.9509   0.9509   4.7347   4.7347   5.6802   5.6802
     5.9266   6.0655   6.0655   6.0659   7.1972   7.2623   7.4298   7.4298
    11.7662  11.7663

     occupation numbers 
     1.0000   1.0000   1.0000   1.0000   1.0000   1.0000   1.0000   1.0000
     1.0000   1.0000   1.0000   1.0000   1.0000   1.0000   0.9999   0.9999
     0.8696   0.3745   0.3744   0.3732   0.0000   0.0000   0.0000   0.0000
     0.0000   0.0000

          k = 0.3333-0.3849 0.0000 (  4156 PWs)   bands (ev):

    -6.7664  -6.7656  -4.9261  -4.9202  -4.3848  -4.3795   1.0303   1.1034
     1.2953   1.4049   2.3539   2.5517   2.8591   2.9801   3.8725   3.9619
     4.1188   4.1593   7.6139   7.6514   7.9592   7.9726   9.0750   9.0845
     9.7613   9.7777

     occupation numbers 
     1.0000   1.0000   1.0000   1.0000   1.0000   1.0000   1.0000   1.0000
     1.0000   1.0000   1.0000   1.0000   1.0000   1.0000   1.0000   1.0000
     1.0000   1.0000   0.0000   0.0000   0.0000   0.0000   0.0000   0.0000
     0.0000   0.0000

          k = 0.3333-0.3849 0.1259 (  4147 PWs)   bands (ev):

    -6.6834  -6.6797  -5.2253  -5.2202  -4.1583  -4.1498   0.7633   0.7959
     1.2582   1.3611   2.2759   2.4076   3.0825   3.2517   3.9503   4.0850
     4.7540   4.8777   7.1704   7.2338   8.1924   8.2229   8.3434   8.4098
     9.9012   9.9546

     occupation numbers 
     1.0000   1.0000   1.0000   1.0000   1.0000   1.0000   1.0000   1.0000
     1.0000   1.0000   1.0000   1.0000   1.0000   1.0000   1.0000   1.0000
     1.0000   1.0000   0.0000   0.0000   0.0000   0.0000   0.0000   0.0000
     0.0000   0.0000

          k = 0.3333-0.3849 0.2518 (  4145 PWs)   bands (ev):

    -6.4516  -6.4448  -5.6633  -5.6553  -3.9607  -3.9531   0.4987   0.5414
     1.2338   1.3090   2.0115   2.0852   3.3333   3.4604   4.8650   5.0722
     5.4309   5.6851   6.5588   6.6189   7.3131   7.3831   8.3700   8.4797
    10.2294  10.3058

     occupation numbers 
     1.0000   1.0000   1.0000   1.0000   1.0000   1.0000   1.0000   1.0000
     1.0000   1.0000   1.0000   1.0000   1.0000   1.0000   1.0000   1.0000
     1.0000   0.9999   0.0000   0.0000   0.0000   0.0000   0.0000   0.0000
     0.0000   0.0000

          k = 0.3333-0.3849-0.3778 (  4140 PWs)   bands (ev):

    -6.1921  -6.1899  -5.9807  -5.9777  -3.9152  -3.9136   0.4852   0.5127
     1.4090   1.4371   1.5506   1.6320   4.1641   4.2673   4.6459   4.6851
     5.4535   5.5255   6.7561   6.8593   7.4328   7.4972   8.0511   8.0984
    10.7133  10.7482

     occupation numbers 
     1.0000   1.0000   1.0000   1.0000   1.0000   1.0000   1.0000   1.0000
     1.0000   1.0000   1.0000   1.0000   1.0000   1.0000   1.0000   1.0000
     1.0000   1.0000   0.0000   0.0000   0.0000   0.0000   0.0000   0.0000
     0.0000   0.0000

          k = 0.3333-0.1925 0.0000 (  4144 PWs)   bands (ev):

    -7.0827  -7.0820  -4.7966  -4.7913  -4.2608  -4.2570   0.9834   1.0400
     1.5448   1.7095   2.2343   2.4508   3.4314   3.5073   4.7196   4.8706
     4.9550   5.1010   6.7455   6.8496   6.9743   7.0137   8.6264   8.6426
     9.2948   9.3231

     occupation numbers 
     1.0000   1.0000   1.0000   1.0000   1.0000   1.0000   1.0000   1.0000
     1.0000   1.0000   1.0000   1.0000   1.0000   1.0000   1.0000   1.0000
     1.0000   1.0000   0.0000   0.0000   0.0000   0.0000   0.0000   0.0000
     0.0000   0.0000

          k = 0.3333-0.1925 0.1259 (  4142 PWs)   bands (ev):

    -6.9870  -6.9845  -5.2673  -5.2630  -3.8341  -3.8279   0.8262   0.8545
     1.3116   1.4124   2.3502   2.4898   4.1324   4.3850   4.6066   4.8754
     4.8967   5.1043   6.6768   6.7346   7.1511   7.2552   7.7664   7.7937
     9.2252   9.2838

     occupation numbers 
     1.0000   1.0000   1.0000   1.0000   1.0000   1.0000   1.0000   1.0000
     1.0000   1.0000   1.0000   1.0000   1.0000   1.0000   1.0000   1.0000
     1.0000   1.0000   0.0000   0.0000   0.0000   0.0000   0.0000   0.0000
     0.0000   0.0000

          k = 0.3333-0.1925 0.2518 (  4149 PWs)   bands (ev):

    -6.7210  -6.7162  -5.8308  -5.8245  -3.5345  -3.5283   0.6603   0.7046
     1.5481   1.6663   2.4933   2.6075   3.8594   4.0237   4.2420   4.3473
     5.6613   5.7146   6.5543   6.6284   7.1910   7.3219   7.6555   7.9903
     9.6996   9.8307

     occupation numbers 
     1.0000   1.0000   1.0000   1.0000   1.0000   1.0000   1.0000   1.0000
     1.0000   1.0000   1.0000   1.0000   1.0000   1.0000   1.0000   1.0000
     0.9999   0.9996   0.0000   0.0000   0.0000   0.0000   0.0000   0.0000
     0.0000   0.0000

          k = 0.3333-0.1925-0.3778 (  4142 PWs)   bands (ev):

    -6.4080  -6.4061  -6.2243  -6.2224  -3.5008  -3.4993   0.7501   0.7914
     2.0416   2.1655   2.3887   2.5022   3.6146   3.6795   3.9131   3.9883
     4.8616   4.9564   7.1015   7.3042   7.7632   7.8745   8.1432   8.3500
    10.3708  10.5136

     occupation numbers 
     1.0000   1.0000   1.0000   1.0000   1.0000   1.0000   1.0000   1.0000
     1.0000   1.0000   1.0000   1.0000   1.0000   1.0000   1.0000   1.0000
     1.0000   1.0000   0.0000   0.0000   0.0000   0.0000   0.0000   0.0000
     0.0000   0.0000

          k = 0.3333-0.0000 0.0000 (  4165 PWs)   bands (ev):

    -7.2184  -7.2178  -4.6233  -4.6134  -4.3636  -4.3553   1.1684   1.2831
     1.4261   1.5354   2.7593   2.9238   3.9328   4.0870   4.2221   4.2902
     4.6902   4.7387   7.3675   7.4036   7.4542   7.4909   7.8095   7.8270
    10.1613  10.1674

     occupation numbers 
     1.0000   1.0000   1.0000   1.0000   1.0000   1.0000   1.0000   1.0000
     1.0000   1.0000   1.0000   1.0000   1.0000   1.0000   1.0000   1.0000
     1.0000   1.0000   0.0000   0.0000   0.0000   0.0000   0.0000   0.0000
     0.0000   0.0000

          k = 0.3333-0.0000 0.1259 (  4157 PWs)   bands (ev):

    -7.1277  -7.1256  -5.1901  -5.1862  -3.8629  -3.8577   1.1713   1.2345
     1.5927   1.6539   2.6725   2.8111   3.5083   3.6018   4.2610   4.3788
     5.3038   5.3703   6.7531   6.8216   7.5050   7.5481   8.1061   8.1380
    10.1330  10.1627

     occupation numbers 
     1.0000   1.0000   1.0000   1.0000   1.0000   1.0000   1.0000   1.0000
     1.0000   1.0000   1.0000   1.0000   1.0000   1.0000   1.0000   1.0000
     1.0000   1.0000   0.0000   0.0000   0.0000   0.0000   0.0000   0.0000
     0.0000   0.0000

          k = 0.3333-0.0000 0.2518 (  4135 PWs)   bands (ev):

    -6.8591  -6.8553  -5.8486  -5.8435  -3.4296  -3.4238   1.1793   1.2720
     1.6827   1.8169   2.5132   2.6276   3.2156   3.3953   4.7081   4.8337
     5.0590   5.1744   6.6871   6.7410   7.5143   7.5257   8.2942   8.3477
    10.3179  10.3383

     occupation numbers 
     1.0000   1.0000   1.0000   1.0000   1.0000   1.0000   1.0000   1.0000
     1.0000   1.0000   1.0000   1.0000   1.0000   1.0000   1.0000   1.0000
     1.0000   1.0000   0.0000   0.0000   0.0000   0.0000   0.0000   0.0000
     0.0000   0.0000

          k = 0.3333-0.0000-0.3778 (  4148 PWs)   bands (ev):

    -6.4695  -6.4665  -6.3732  -6.3702  -3.2662  -3.2647   1.1591   1.2558
     1.9687   1.9797   2.0947   2.1969   3.7816   3.9416   4.3382   4.3722
     5.0118   5.0978   6.5956   6.6750   7.9661   7.9830   8.1732   8.1928
    10.5253  10.5643

     occupation numbers 
     1.0000   1.0000   1.0000   1.0000   1.0000   1.0000   1.0000   1.0000
     1.0000   1.0000   1.0000   1.0000   1.0000   1.0000   1.0000   1.0000
     1.0000   1.0000   0.0000   0.0000   0.0000   0.0000   0.0000   0.0000
     0.0000   0.0000

          k =-0.5000-0.2887 0.0000 (  4126 PWs)   bands (ev):

    -6.7412  -6.7412  -5.1043  -5.1043  -4.1978  -4.1978   0.9624   0.9624
     1.4452   1.4452   2.2734   2.2734   2.4835   2.4835   4.7167   4.7167
     4.9963   4.9963   6.8001   6.8001   6.9158   6.9158   8.9217   8.9217
     9.5711   9.5711

     occupation numbers 
     1.0000   1.0000   1.0000   1.0000   1.0000   1.0000   1.0000   1.0000
     1.0000   1.0000   1.0000   1.0000   1.0000   1.0000   1.0000   1.0000
     1.0000   1.0000   0.0000   0.0000   0.0000   0.0000   0.0000   0.0000
     0.0000   0.0000

          k =-0.5000-0.2887 0.1259 (  4124 PWs)   bands (ev):

    -6.6672  -6.6635  -5.2668  -5.2626  -4.1432  -4.1353   0.9149   0.9544
     1.1211   1.2322   2.1931   2.3506   3.1106   3.2922   4.3537   4.5224
     4.6723   4.7583   6.7955   6.8397   7.3688   7.5873   9.0357   9.0541
     9.2672   9.3785

     occupation numbers 
     1.0000   1.0000   1.0000   1.0000   1.0000   1.0000   1.0000   1.0000
     1.0000   1.0000   1.0000   1.0000   1.0000   1.0000   1.0000   1.0000
     1.0000   1.0000   0.0000   0.0000   0.0000   0.0000   0.0000   0.0000
     0.0000   0.0000

          k =-0.5000-0.2887 0.2518 (  4138 PWs)   bands (ev):

    -6.4563  -6.4498  -5.6226  -5.6150  -4.0459  -4.0389   0.4053   0.4358
     1.5515   1.6593   2.3006   2.4136   3.5210   3.8000   3.9768   4.1753
     4.6734   4.8650   7.1485   7.2413   7.7650   7.8436   8.1314   8.4590
     9.9919  10.2018

     occupation numbers 
     1.0000   1.0000   1.0000   1.0000   1.0000   1.0000   1.0000   1.0000
     1.0000   1.0000   1.0000   1.0000   1.0000   1.0000   1.0000   1.0000
     1.0000   1.0000   0.0000   0.0000   0.0000   0.0000   0.0000   0.0000
     0.0000   0.0000

          k =-0.5000-0.2887-0.3778 (  4152 PWs)   bands (ev):

    -6.2402  -6.2402  -5.8941  -5.8941  -3.9990  -3.9990   0.2221   0.2221
     2.0657   2.0657   2.1916   2.1916   3.4792   3.4792   3.8433   3.8433
     5.6891   5.6891   6.6563   6.6563   7.6778   7.6778   8.5181   8.5181
    10.4684  10.4685

     occupation numbers 
     1.0000   1.0000   1.0000   1.0000   1.0000   1.0000   1.0000   1.0000
     1.0000   1.0000   1.0000   1.0000   1.0000   1.0000   1.0000   1.0000
     0.9998   0.9998   0.0000   0.0000   0.0000   0.0000   0.0000   0.0000
     0.0000   0.0000

          k =-0.5000-0.0962 0.0000 (  4156 PWs)   bands (ev):

    -6.7664  -6.7656  -4.9261  -4.9202  -4.3848  -4.3795   1.0303   1.1034
     1.2953   1.4049   2.3540   2.5517   2.8591   2.9800   3.8725   3.9619
     4.1188   4.1593   7.6140   7.6515   7.9593   7.9727   9.0750   9.0844
     9.7614   9.7778

     occupation numbers 
     1.0000   1.0000   1.0000   1.0000   1.0000   1.0000   1.0000   1.0000
     1.0000   1.0000   1.0000   1.0000   1.0000   1.0000   1.0000   1.0000
     1.0000   1.0000   0.0000   0.0000   0.0000   0.0000   0.0000   0.0000
     0.0000   0.0000

          k =-0.5000-0.0962 0.1259 (  4147 PWs)   bands (ev):

    -6.6834  -6.6797  -5.2253  -5.2202  -4.1583  -4.1497   0.7633   0.7959
     1.2582   1.3611   2.2759   2.4076   3.0826   3.2517   3.9503   4.0850
     4.7540   4.8777   7.1705   7.2339   8.1925   8.2230   8.3434   8.4098
     9.9012   9.9547

     occupation numbers 
     1.0000   1.0000   1.0000   1.0000   1.0000   1.0000   1.0000   1.0000
     1.0000   1.0000   1.0000   1.0000   1.0000   1.0000   1.0000   1.0000
     1.0000   1.0000   0.0000   0.0000   0.0000   0.0000   0.0000   0.0000
     0.0000   0.0000

          k =-0.5000-0.0962 0.2518 (  4145 PWs)   bands (ev):

    -6.4516  -6.4448  -5.6633  -5.6553  -3.9607  -3.9531   0.4987   0.5415
     1.2338   1.3090   2.0115   2.0852   3.3334   3.4605   4.8650   5.0723
     5.4309   5.6851   6.5588   6.6190   7.3131   7.3832   8.3700   8.4798
    10.2294  10.3058

     occupation numbers 
     1.0000   1.0000   1.0000   1.0000   1.0000   1.0000   1.0000   1.0000
     1.0000   1.0000   1.0000   1.0000   1.0000   1.0000   1.0000   1.0000
     1.0000   0.9999   0.0000   0.0000   0.0000   0.0000   0.0000   0.0000
     0.0000   0.0000

          k =-0.5000-0.0962-0.3778 (  4140 PWs)   bands (ev):

    -6.1922  -6.1899  -5.9806  -5.9777  -3.9152  -3.9136   0.4852   0.5127
     1.4090   1.4371   1.5506   1.6320   4.1642   4.2674   4.6459   4.6851
     5.4535   5.5255   6.7561   6.8593   7.4328   7.4971   8.0511   8.0985
    10.7133  10.7482

     occupation numbers 
     1.0000   1.0000   1.0000   1.0000   1.0000   1.0000   1.0000   1.0000
     1.0000   1.0000   1.0000   1.0000   1.0000   1.0000   1.0000   1.0000
     1.0000   1.0000   0.0000   0.0000   0.0000   0.0000   0.0000   0.0000
     0.0000   0.0000

          k =-0.5000 0.0962 0.0000 (  4156 PWs)   bands (ev):

    -6.7664  -6.7656  -4.9261  -4.9202  -4.3848  -4.3795   1.0303   1.1034
     1.2953   1.4049   2.3539   2.5517   2.8591   2.9801   3.8725   3.9619
     4.1188   4.1592   7.6139   7.6514   7.9592   7.9726   9.0751   9.0845
     9.7613   9.7777

     occupation numbers 
     1.0000   1.0000   1.0000   1.0000   1.0000   1.0000   1.0000   1.0000
     1.0000   1.0000   1.0000   1.0000   1.0000   1.0000   1.0000   1.0000
     1.0000   1.0000   0.0000   0.0000   0.0000   0.0000   0.0000   0.0000
     0.0000   0.0000

          k =-0.5000 0.0962 0.1259 (  4147 PWs)   bands (ev):

    -6.6942  -6.6906  -5.1415  -5.1368  -4.2676  -4.2588   0.9513   1.0019
     1.3458   1.4203   2.3159   2.4827   2.7213   3.1003   3.5502   3.7440
     4.9842   5.0487   7.0289   7.0873   8.0815   8.1331   9.1314   9.1542
    10.0162  10.0708

     occupation numbers 
     1.0000   1.0000   1.0000   1.0000   1.0000   1.0000   1.0000   1.0000
     1.0000   1.0000   1.0000   1.0000   1.0000   1.0000   1.0000   1.0000
     1.0000   1.0000   0.0000   0.0000   0.0000   0.0000   0.0000   0.0000
     0.0000   0.0000

          k =-0.5000 0.0962 0.2518 (  4145 PWs)   bands (ev):

    -6.4746  -6.4685  -5.5982  -5.5910  -4.0397  -4.0322   0.7445   0.8179
     1.1327   1.1994   1.9689   2.0436   3.4468   3.6575   4.3338   4.4753
     5.2304   5.3624   6.8198   6.8493   7.9506   8.0180   8.4423   8.4830
    10.4956  10.5404

     occupation numbers 
     1.0000   1.0000   1.0000   1.0000   1.0000   1.0000   1.0000   1.0000
     1.0000   1.0000   1.0000   1.0000   1.0000   1.0000   1.0000   1.0000
     1.0000   1.0000   0.0000   0.0000   0.0000   0.0000   0.0000   0.0000
     0.0000   0.0000

          k =-0.5000 0.0962-0.3778 (  4140 PWs)   bands (ev):

    -6.1921  -6.1899  -5.9807  -5.9777  -3.9152  -3.9136   0.4852   0.5127
     1.4090   1.4371   1.5505   1.6320   4.1641   4.2674   4.6459   4.6851
     5.4536   5.5255   6.7561   6.8593   7.4329   7.4972   8.0511   8.0984
    10.7133  10.7481

     occupation numbers 
     1.0000   1.0000   1.0000   1.0000   1.0000   1.0000   1.0000   1.0000
     1.0000   1.0000   1.0000   1.0000   1.0000   1.0000   1.0000   1.0000
     1.0000   1.0000   0.0000   0.0000   0.0000   0.0000   0.0000   0.0000
     0.0000   0.0000

          k =-0.5000-0.8660 0.0000 (  4126 PWs)   bands (ev):

    -6.7411  -6.7411  -5.1043  -5.1043  -4.1978  -4.1978   0.9624   0.9624
     1.4452   1.4452   2.2734   2.2734   2.4835   2.4835   4.7166   4.7166
     4.9962   4.9962   6.8000   6.8000   6.9157   6.9157   8.9216   8.9216
     9.5712   9.5712

     occupation numbers 
     1.0000   1.0000   1.0000   1.0000   1.0000   1.0000   1.0000   1.0000
     1.0000   1.0000   1.0000   1.0000   1.0000   1.0000   1.0000   1.0000
     1.0000   1.0000   0.0000   0.0000   0.0000   0.0000   0.0000   0.0000
     0.0000   0.0000

          k =-0.5000-0.8660 0.1259 (  4124 PWs)   bands (ev):

    -6.6672  -6.6635  -5.2668  -5.2626  -4.1432  -4.1353   0.9149   0.9544
     1.1211   1.2322   2.1931   2.3505   3.1106   3.2922   4.3536   4.5223
     4.6722   4.7582   6.7954   6.8397   7.3687   7.5873   9.0358   9.0541
     9.2672   9.3784

     occupation numbers 
     1.0000   1.0000   1.0000   1.0000   1.0000   1.0000   1.0000   1.0000
     1.0000   1.0000   1.0000   1.0000   1.0000   1.0000   1.0000   1.0000
     1.0000   1.0000   0.0000   0.0000   0.0000   0.0000   0.0000   0.0000
     0.0000   0.0000

          k =-0.5000-0.8660 0.2518 (  4138 PWs)   bands (ev):

    -6.4563  -6.4498  -5.6226  -5.6150  -4.0459  -4.0390   0.4052   0.4358
     1.5515   1.6593   2.3005   2.4135   3.5209   3.8000   3.9767   4.1753
     4.6734   4.8650   7.1485   7.2413   7.7650   7.8436   8.1314   8.4589
     9.9919  10.2018

     occupation numbers 
     1.0000   1.0000   1.0000   1.0000   1.0000   1.0000   1.0000   1.0000
     1.0000   1.0000   1.0000   1.0000   1.0000   1.0000   1.0000   1.0000
     1.0000   1.0000   0.0000   0.0000   0.0000   0.0000   0.0000   0.0000
     0.0000   0.0000

          k =-0.5000-0.8660-0.3778 (  4152 PWs)   bands (ev):

    -6.2401  -6.2401  -5.8941  -5.8941  -3.9990  -3.9990   0.2221   0.2221
     2.0656   2.0656   2.1916   2.1916   3.4792   3.4792   3.8433   3.8433
     5.6891   5.6891   6.6563   6.6563   7.6778   7.6778   8.5181   8.5181
    10.4684  10.4684

     occupation numbers 
     1.0000   1.0000   1.0000   1.0000   1.0000   1.0000   1.0000   1.0000
     1.0000   1.0000   1.0000   1.0000   1.0000   1.0000   1.0000   1.0000
     0.9998   0.9998   0.0000   0.0000   0.0000   0.0000   0.0000   0.0000
     0.0000   0.0000

          k = 0.0000-0.1925 0.1259 (  4170 PWs)   bands (ev):

    -7.4437  -7.4423  -5.2614  -5.2582  -3.6272  -3.6244   1.7297   1.8183
     2.4261   2.6219   2.7008   3.0599   4.1458   4.2004   4.2914   4.4652
     4.7090   4.8948   6.8709   6.9692   7.2477   7.3718   7.6537   7.7513
    10.5826  10.6227

     occupation numbers 
     1.0000   1.0000   1.0000   1.0000   1.0000   1.0000   1.0000   1.0000
     1.0000   1.0000   1.0000   1.0000   1.0000   1.0000   1.0000   1.0000
     1.0000   1.0000   0.0000   0.0000   0.0000   0.0000   0.0000   0.0000
     0.0000   0.0000

          k = 0.0000-0.1925 0.2518 (  4163 PWs)   bands (ev):

    -7.1561  -7.1534  -6.0350  -6.0311  -2.9749  -2.9706   1.7448   1.8143
     2.5500   2.7123   2.9583   3.2023   3.6462   3.8672   4.0679   4.1545
     4.5335   4.6822   6.8893   6.9330   7.5075   7.6002   7.6596   7.7267
    10.5295  10.5470

     occupation numbers 
     1.0000   1.0000   1.0000   1.0000   1.0000   1.0000   1.0000   1.0000
     1.0000   1.0000   1.0000   1.0000   1.0000   1.0000   1.0000   1.0000
     1.0000   1.0000   0.0000   0.0000   0.0000   0.0000   0.0000   0.0000
     0.0000   0.0000

          k = 0.0000-0.3849 0.1259 (  4142 PWs)   bands (ev):

    -7.0043  -7.0019  -5.1093  -5.1055  -4.0804  -4.0743   1.2506   1.3651
     1.7273   1.8487   2.4565   2.6877   2.7204   2.9472   4.2530   4.5031
     4.6960   4.8590   6.8723   6.9733   7.5546   7.7884   9.0244   9.0367
     9.8759   9.9868

     occupation numbers 
     1.0000   1.0000   1.0000   1.0000   1.0000   1.0000   1.0000   1.0000
     1.0000   1.0000   1.0000   1.0000   1.0000   1.0000   1.0000   1.0000
     1.0000   1.0000   0.0000   0.0000   0.0000   0.0000   0.0000   0.0000
     0.0000   0.0000

          k = 0.0000-0.3849 0.2518 (  4149 PWs)   bands (ev):

    -6.7585  -6.7544  -5.7209  -5.7156  -3.7156  -3.7096   1.1235   1.1979
     1.8704   2.0275   2.4611   2.6019   3.2150   3.5758   3.8215   3.9779
     4.3112   4.5318   7.2760   7.3300   8.0961   8.2529   8.7265   8.7403
    10.5003  10.6086

     occupation numbers 
     1.0000   1.0000   1.0000   1.0000   1.0000   1.0000   1.0000   1.0000
     1.0000   1.0000   1.0000   1.0000   1.0000   1.0000   1.0000   1.0000
     1.0000   1.0000   0.0000   0.0000   0.0000   0.0000   0.0000   0.0000
     0.0000   0.0000

          k =-0.1667-0.0962 0.1259 (  4170 PWs)   bands (ev):

    -7.4411  -7.4396  -5.2889  -5.2857  -3.5713  -3.5685   1.7544   1.8269
     1.9205   2.0541   2.7959   2.9858   4.5369   4.6681   4.8429   5.0384
     5.2318   5.3246   6.4793   6.5091   6.6496   6.7881   7.2873   7.3475
     9.9008   9.9096

     occupation numbers 
     1.0000   1.0000   1.0000   1.0000   1.0000   1.0000   1.0000   1.0000
     1.0000   1.0000   1.0000   1.0000   1.0000   1.0000   1.0000   1.0000
     1.0000   1.0000   0.0000   0.0000   0.0000   0.0000   0.0000   0.0000
     0.0000   0.0000

          k =-0.1667-0.0962 0.2518 (  4163 PWs)   bands (ev):

    -7.1503  -7.1475  -6.0521  -6.0482  -2.9259  -2.9216   1.6190   1.7137
     2.0924   2.2699   2.8978   3.0783   4.3468   4.4169   4.5590   4.6584
     4.8189   4.9167   6.5210   6.6324   6.8383   6.9927   7.5555   7.5683
     9.9292   9.9550

     occupation numbers 
     1.0000   1.0000   1.0000   1.0000   1.0000   1.0000   1.0000   1.0000
     1.0000   1.0000   1.0000   1.0000   1.0000   1.0000   1.0000   1.0000
     1.0000   1.0000   0.0000   0.0000   0.0000   0.0000   0.0000   0.0000
     0.0000   0.0000

          k =-0.1667-0.2887 0.1259 (  4157 PWs)   bands (ev):

    -7.1277  -7.1256  -5.1901  -5.1862  -3.8629  -3.8577   1.1713   1.2345
     1.5926   1.6539   2.6725   2.8111   3.5083   3.6019   4.2610   4.3788
     5.3037   5.3702   6.7531   6.8216   7.5050   7.5481   8.1062   8.1380
    10.1331  10.1626

     occupation numbers 
     1.0000   1.0000   1.0000   1.0000   1.0000   1.0000   1.0000   1.0000
     1.0000   1.0000   1.0000   1.0000   1.0000   1.0000   1.0000   1.0000
     1.0000   1.0000   0.0000   0.0000   0.0000   0.0000   0.0000   0.0000
     0.0000   0.0000

          k =-0.1667-0.2887 0.2518 (  4135 PWs)   bands (ev):

    -6.8591  -6.8553  -5.8487  -5.8436  -3.4295  -3.4238   1.1793   1.2720
     1.6827   1.8169   2.5133   2.6276   3.2156   3.3953   4.7081   4.8337
     5.0590   5.1744   6.6871   6.7410   7.5143   7.5257   8.2942   8.3478
    10.3180  10.3383

     occupation numbers 
     1.0000   1.0000   1.0000   1.0000   1.0000   1.0000   1.0000   1.0000
     1.0000   1.0000   1.0000   1.0000   1.0000   1.0000   1.0000   1.0000
     1.0000   1.0000   0.0000   0.0000   0.0000   0.0000   0.0000   0.0000
     0.0000   0.0000

          k =-0.1667-0.4811 0.1259 (  4147 PWs)   bands (ev):

    -6.6942  -6.6906  -5.1415  -5.1368  -4.2676  -4.2588   0.9513   1.0019
     1.3458   1.4203   2.3159   2.4827   2.7213   3.1003   3.5502   3.7440
     4.9842   5.0487   7.0289   7.0874   8.0815   8.1331   9.1313   9.1542
    10.0162  10.0708

     occupation numbers 
     1.0000   1.0000   1.0000   1.0000   1.0000   1.0000   1.0000   1.0000
     1.0000   1.0000   1.0000   1.0000   1.0000   1.0000   1.0000   1.0000
     1.0000   1.0000   0.0000   0.0000   0.0000   0.0000   0.0000   0.0000
     0.0000   0.0000

          k =-0.1667-0.4811 0.2518 (  4145 PWs)   bands (ev):

    -6.4746  -6.4685  -5.5981  -5.5910  -4.0397  -4.0322   0.7445   0.8179
     1.1327   1.1994   1.9689   2.0436   3.4468   3.6575   4.3338   4.4753
     5.2304   5.3624   6.8198   6.8494   7.9506   8.0180   8.4423   8.4830
    10.4957  10.5404

     occupation numbers 
     1.0000   1.0000   1.0000   1.0000   1.0000   1.0000   1.0000   1.0000
     1.0000   1.0000   1.0000   1.0000   1.0000   1.0000   1.0000   1.0000
     1.0000   1.0000   0.0000   0.0000   0.0000   0.0000   0.0000   0.0000
     0.0000   0.0000

          k =-0.1667 0.4811 0.1259 (  4147 PWs)   bands (ev):

    -6.6834  -6.6797  -5.2253  -5.2202  -4.1583  -4.1497   0.7633   0.7959
     1.2582   1.3611   2.2759   2.4076   3.0825   3.2517   3.9503   4.0850
     4.7540   4.8777   7.1704   7.2338   8.1924   8.2229   8.3434   8.4098
     9.9012   9.9547

     occupation numbers 
     1.0000   1.0000   1.0000   1.0000   1.0000   1.0000   1.0000   1.0000
     1.0000   1.0000   1.0000   1.0000   1.0000   1.0000   1.0000   1.0000
     1.0000   1.0000   0.0000   0.0000   0.0000   0.0000   0.0000   0.0000
     0.0000   0.0000

          k =-0.1667 0.4811 0.2518 (  4145 PWs)   bands (ev):

    -6.4516  -6.4448  -5.6633  -5.6553  -3.9607  -3.9531   0.4987   0.5414
     1.2338   1.3090   2.0115   2.0852   3.3333   3.4604   4.8650   5.0722
     5.4309   5.6851   6.5588   6.6189   7.3131   7.3831   8.3700   8.4798
    10.2294  10.3058

     occupation numbers 
     1.0000   1.0000   1.0000   1.0000   1.0000   1.0000   1.0000   1.0000
     1.0000   1.0000   1.0000   1.0000   1.0000   1.0000   1.0000   1.0000
     1.0000   0.9999   0.0000   0.0000   0.0000   0.0000   0.0000   0.0000
     0.0000   0.0000

          k =-0.1667 0.2887 0.1259 (  4157 PWs)   bands (ev):

    -7.1277  -7.1256  -5.1901  -5.1862  -3.8629  -3.8577   1.1712   1.2345
     1.5926   1.6539   2.6725   2.8111   3.5083   3.6019   4.2609   4.3788
     5.3037   5.3702   6.7531   6.8216   7.5049   7.5480   8.1062   8.1380
    10.1332  10.1625

     occupation numbers 
     1.0000   1.0000   1.0000   1.0000   1.0000   1.0000   1.0000   1.0000
     1.0000   1.0000   1.0000   1.0000   1.0000   1.0000   1.0000   1.0000
     1.0000   1.0000   0.0000   0.0000   0.0000   0.0000   0.0000   0.0000
     0.0000   0.0000

          k =-0.1667 0.2887 0.2518 (  4135 PWs)   bands (ev):

    -6.8591  -6.8553  -5.8486  -5.8436  -3.4295  -3.4238   1.1793   1.2719
     1.6827   1.8169   2.5133   2.6276   3.2156   3.3953   4.7080   4.8336
     5.0589   5.1744   6.6871   6.7410   7.5143   7.5257   8.2943   8.3478
    10.3179  10.3383

     occupation numbers 
     1.0000   1.0000   1.0000   1.0000   1.0000   1.0000   1.0000   1.0000
     1.0000   1.0000   1.0000   1.0000   1.0000   1.0000   1.0000   1.0000
     1.0000   1.0000   0.0000   0.0000   0.0000   0.0000   0.0000   0.0000
     0.0000   0.0000

          k =-0.1667 0.0962 0.1259 (  4170 PWs)   bands (ev):

    -7.4437  -7.4423  -5.2614  -5.2583  -3.6272  -3.6244   1.7297   1.8183
     2.4261   2.6219   2.7008   3.0599   4.1458   4.2004   4.2914   4.4652
     4.7090   4.8948   6.8708   6.9692   7.2477   7.3718   7.6537   7.7513
    10.5835  10.6227

     occupation numbers 
     1.0000   1.0000   1.0000   1.0000   1.0000   1.0000   1.0000   1.0000
     1.0000   1.0000   1.0000   1.0000   1.0000   1.0000   1.0000   1.0000
     1.0000   1.0000   0.0000   0.0000   0.0000   0.0000   0.0000   0.0000
     0.0000   0.0000

          k =-0.1667 0.0962 0.2518 (  4163 PWs)   bands (ev):

    -7.1561  -7.1534  -6.0350  -6.0311  -2.9749  -2.9706   1.7447   1.8143
     2.5499   2.7122   2.9583   3.2023   3.6462   3.8672   4.0679   4.1545
     4.5334   4.6822   6.8893   6.9330   7.5075   7.6002   7.6596   7.7267
    10.5297  10.5470

     occupation numbers 
     1.0000   1.0000   1.0000   1.0000   1.0000   1.0000   1.0000   1.0000
     1.0000   1.0000   1.0000   1.0000   1.0000   1.0000   1.0000   1.0000
     1.0000   1.0000   0.0000   0.0000   0.0000   0.0000   0.0000   0.0000
     0.0000   0.0000

          k =-0.3333-0.1924 0.1259 (  4142 PWs)   bands (ev):

    -6.9870  -6.9845  -5.2673  -5.2630  -3.8341  -3.8278   0.8262   0.8546
     1.3116   1.4123   2.3502   2.4898   4.1324   4.3850   4.6067   4.8755
     4.8967   5.1043   6.6768   6.7347   7.1512   7.2552   7.7664   7.7937
     9.2252   9.2838

     occupation numbers 
     1.0000   1.0000   1.0000   1.0000   1.0000   1.0000   1.0000   1.0000
     1.0000   1.0000   1.0000   1.0000   1.0000   1.0000   1.0000   1.0000
     1.0000   1.0000   0.0000   0.0000   0.0000   0.0000   0.0000   0.0000
     0.0000   0.0000

          k =-0.3333-0.1924 0.2518 (  4149 PWs)   bands (ev):

    -6.7210  -6.7162  -5.8308  -5.8245  -3.5344  -3.5283   0.6603   0.7046
     1.5481   1.6663   2.4933   2.6075   3.8594   4.0238   4.2420   4.3474
     5.6613   5.7145   6.5543   6.6284   7.1910   7.3219   7.6556   7.9903
     9.6997   9.8307

     occupation numbers 
     1.0000   1.0000   1.0000   1.0000   1.0000   1.0000   1.0000   1.0000
     1.0000   1.0000   1.0000   1.0000   1.0000   1.0000   1.0000   1.0000
     0.9999   0.9996   0.0000   0.0000   0.0000   0.0000   0.0000   0.0000
     0.0000   0.0000

          k =-0.3333-0.3849 0.1259 (  4147 PWs)   bands (ev):

    -6.6834  -6.6797  -5.2253  -5.2202  -4.1583  -4.1497   0.7633   0.7959
     1.2582   1.3611   2.2759   2.4076   3.0826   3.2517   3.9503   4.0850
     4.7540   4.8777   7.1705   7.2339   8.1925   8.2230   8.3434   8.4098
     9.9012   9.9547

     occupation numbers 
     1.0000   1.0000   1.0000   1.0000   1.0000   1.0000   1.0000   1.0000
     1.0000   1.0000   1.0000   1.0000   1.0000   1.0000   1.0000   1.0000
     1.0000   1.0000   0.0000   0.0000   0.0000   0.0000   0.0000   0.0000
     0.0000   0.0000

          k =-0.3333-0.3849 0.2518 (  4145 PWs)   bands (ev):

    -6.4516  -6.4448  -5.6633  -5.6553  -3.9607  -3.9531   0.4987   0.5415
     1.2338   1.3090   2.0115   2.0852   3.3334   3.4605   4.8650   5.0723
     5.4309   5.6851   6.5589   6.6190   7.3131   7.3832   8.3700   8.4797
    10.2294  10.3058

     occupation numbers 
     1.0000   1.0000   1.0000   1.0000   1.0000   1.0000   1.0000   1.0000
     1.0000   1.0000   1.0000   1.0000   1.0000   1.0000   1.0000   1.0000
     1.0000   0.9999   0.0000   0.0000   0.0000   0.0000   0.0000   0.0000
     0.0000   0.0000

          k =-0.3333-0.5773 0.1259 (  4158 PWs)   bands (ev):

    -6.5053  -6.5007  -5.1414  -5.1378  -4.4234  -4.4135   0.8748   0.8880
     1.2476   1.4139   2.0544   2.1626   2.7796   2.9646   3.7674   3.8082
     4.1485   4.3433   8.0704   8.2263   8.5235   8.6388   8.6515   8.6797
    10.9363  10.9832

     occupation numbers 
     1.0000   1.0000   1.0000   1.0000   1.0000   1.0000   1.0000   1.0000
     1.0000   1.0000   1.0000   1.0000   1.0000   1.0000   1.0000   1.0000
     1.0000   1.0000   0.0000   0.0000   0.0000   0.0000   0.0000   0.0000
     0.0000   0.0000

          k =-0.3333-0.5773 0.2518 (  4152 PWs)   bands (ev):

    -6.2929  -6.2846  -5.5637  -5.5547  -4.1885  -4.1799   0.6882   0.7412
     0.8517   0.9110   1.3277   1.4388   3.8152   3.9481   4.8392   4.9927
     5.1823   5.4754   6.9744   7.0890   7.7665   7.8627   7.9737   7.9988
    11.5662  11.5761

     occupation numbers 
     1.0000   1.0000   1.0000   1.0000   1.0000   1.0000   1.0000   1.0000
     1.0000   1.0000   1.0000   1.0000   1.0000   1.0000   1.0000   1.0000
     1.0000   1.0000   0.0000   0.0000   0.0000   0.0000   0.0000   0.0000
     0.0000   0.0000

          k =-0.3333 0.3849 0.1259 (  4147 PWs)   bands (ev):

    -6.6942  -6.6906  -5.1415  -5.1368  -4.2676  -4.2588   0.9512   1.0019
     1.3458   1.4203   2.3159   2.4827   2.7213   3.1003   3.5502   3.7440
     4.9842   5.0487   7.0289   7.0873   8.0814   8.1330   9.1313   9.1542
    10.0161  10.0708

     occupation numbers 
     1.0000   1.0000   1.0000   1.0000   1.0000   1.0000   1.0000   1.0000
     1.0000   1.0000   1.0000   1.0000   1.0000   1.0000   1.0000   1.0000
     1.0000   1.0000   0.0000   0.0000   0.0000   0.0000   0.0000   0.0000
     0.0000   0.0000

          k =-0.3333 0.3849 0.2518 (  4145 PWs)   bands (ev):

    -6.4746  -6.4685  -5.5981  -5.5910  -4.0397  -4.0322   0.7445   0.8179
     1.1327   1.1994   1.9690   2.0436   3.4468   3.6575   4.3338   4.4753
     5.2304   5.3624   6.8199   6.8494   7.9506   8.0179   8.4423   8.4830
    10.4956  10.5403

     occupation numbers 
     1.0000   1.0000   1.0000   1.0000   1.0000   1.0000   1.0000   1.0000
     1.0000   1.0000   1.0000   1.0000   1.0000   1.0000   1.0000   1.0000
     1.0000   1.0000   0.0000   0.0000   0.0000   0.0000   0.0000   0.0000
     0.0000   0.0000

          k =-0.3333 0.1925 0.1259 (  4142 PWs)   bands (ev):

    -7.0043  -7.0019  -5.1093  -5.1055  -4.0804  -4.0743   1.2506   1.3651
     1.7273   1.8487   2.4565   2.6877   2.7204   2.9472   4.2530   4.5031
     4.6960   4.8590   6.8723   6.9733   7.5545   7.7884   9.0244   9.0368
     9.8759   9.9868

     occupation numbers 
     1.0000   1.0000   1.0000   1.0000   1.0000   1.0000   1.0000   1.0000
     1.0000   1.0000   1.0000   1.0000   1.0000   1.0000   1.0000   1.0000
     1.0000   1.0000   0.0000   0.0000   0.0000   0.0000   0.0000   0.0000
     0.0000   0.0000

          k =-0.3333 0.1925 0.2518 (  4149 PWs)   bands (ev):

    -6.7585  -6.7544  -5.7209  -5.7156  -3.7156  -3.7096   1.1235   1.1979
     1.8704   2.0275   2.4611   2.6019   3.2150   3.5758   3.8215   3.9779
     4.3111   4.5317   7.2760   7.3300   8.0961   8.2529   8.7266   8.7403
    10.5004  10.6087

     occupation numbers 
     1.0000   1.0000   1.0000   1.0000   1.0000   1.0000   1.0000   1.0000
     1.0000   1.0000   1.0000   1.0000   1.0000   1.0000   1.0000   1.0000
     1.0000   1.0000   0.0000   0.0000   0.0000   0.0000   0.0000   0.0000
     0.0000   0.0000

          k =-0.3333 0.0000 0.1259 (  4157 PWs)   bands (ev):

    -7.1277  -7.1256  -5.1901  -5.1862  -3.8629  -3.8577   1.1713   1.2345
     1.5926   1.6539   2.6725   2.8111   3.5084   3.6019   4.2609   4.3788
     5.3037   5.3702   6.7531   6.8216   7.5050   7.5481   8.1062   8.1381
    10.1328  10.1629

     occupation numbers 
     1.0000   1.0000   1.0000   1.0000   1.0000   1.0000   1.0000   1.0000
     1.0000   1.0000   1.0000   1.0000   1.0000   1.0000   1.0000   1.0000
     1.0000   1.0000   0.0000   0.0000   0.0000   0.0000   0.0000   0.0000
     0.0000   0.0000

          k =-0.3333 0.0000 0.2518 (  4135 PWs)   bands (ev):

    -6.8591  -6.8553  -5.8487  -5.8436  -3.4295  -3.4238   1.1793   1.2720
     1.6827   1.8169   2.5133   2.6276   3.2156   3.3953   4.7081   4.8337
     5.0590   5.1744   6.6871   6.7410   7.5143   7.5257   8.2943   8.3478
    10.3180  10.3384

     occupation numbers 
     1.0000   1.0000   1.0000   1.0000   1.0000   1.0000   1.0000   1.0000
     1.0000   1.0000   1.0000   1.0000   1.0000   1.0000   1.0000   1.0000
     1.0000   1.0000   0.0000   0.0000   0.0000   0.0000   0.0000   0.0000
     0.0000   0.0000

          k = 0.5000 0.0962 0.1259 (  4147 PWs)   bands (ev):

    -6.6942  -6.6907  -5.1415  -5.1368  -4.2676  -4.2588   0.9513   1.0019
     1.3458   1.4203   2.3159   2.4827   2.7213   3.1003   3.5502   3.7440
     4.9843   5.0487   7.0290   7.0874   8.0815   8.1331   9.1313   9.1541
    10.0162  10.0708

     occupation numbers 
     1.0000   1.0000   1.0000   1.0000   1.0000   1.0000   1.0000   1.0000
     1.0000   1.0000   1.0000   1.0000   1.0000   1.0000   1.0000   1.0000
     1.0000   1.0000   0.0000   0.0000   0.0000   0.0000   0.0000   0.0000
     0.0000   0.0000

          k = 0.5000 0.0962 0.2518 (  4145 PWs)   bands (ev):

    -6.4746  -6.4685  -5.5981  -5.5910  -4.0397  -4.0322   0.7445   0.8179
     1.1327   1.1994   1.9690   2.0436   3.4468   3.6575   4.3338   4.4754
     5.2305   5.3624   6.8199   6.8494   7.9506   8.0180   8.4422   8.4829
    10.4956  10.5404

     occupation numbers 
     1.0000   1.0000   1.0000   1.0000   1.0000   1.0000   1.0000   1.0000
     1.0000   1.0000   1.0000   1.0000   1.0000   1.0000   1.0000   1.0000
     1.0000   1.0000   0.0000   0.0000   0.0000   0.0000   0.0000   0.0000
     0.0000   0.0000

          k = 0.5000-0.0962 0.1259 (  4147 PWs)   bands (ev):

    -6.6834  -6.6797  -5.2252  -5.2202  -4.1583  -4.1498   0.7633   0.7959
     1.2582   1.3611   2.2759   2.4076   3.0825   3.2517   3.9503   4.0850
     4.7540   4.8777   7.1704   7.2338   8.1924   8.2229   8.3434   8.4098
     9.9012   9.9546

     occupation numbers 
     1.0000   1.0000   1.0000   1.0000   1.0000   1.0000   1.0000   1.0000
     1.0000   1.0000   1.0000   1.0000   1.0000   1.0000   1.0000   1.0000
     1.0000   1.0000   0.0000   0.0000   0.0000   0.0000   0.0000   0.0000
     0.0000   0.0000

          k = 0.5000-0.0962 0.2518 (  4145 PWs)   bands (ev):

    -6.4516  -6.4448  -5.6633  -5.6553  -3.9607  -3.9531   0.4987   0.5414
     1.2338   1.3090   2.0115   2.0852   3.3334   3.4604   4.8650   5.0722
     5.4309   5.6851   6.5588   6.6190   7.3131   7.3832   8.3699   8.4797
    10.2294  10.3058

     occupation numbers 
     1.0000   1.0000   1.0000   1.0000   1.0000   1.0000   1.0000   1.0000
     1.0000   1.0000   1.0000   1.0000   1.0000   1.0000   1.0000   1.0000
     1.0000   0.9999   0.0000   0.0000   0.0000   0.0000   0.0000   0.0000
     0.0000   0.0000

     the Fermi energy is     6.0347 ev

!    total energy              =     -85.64460022 Ry
     estimated scf accuracy    <          4.2E-09 Ry
     smearing contrib. (-TS)   =      -0.00009123 Ry
     internal energy E=F+TS    =     -85.64450899 Ry

     The total energy is F=E-TS. E is the sum of the following terms:
     one-electron contribution =       9.92260697 Ry
     hartree contribution      =       3.42633648 Ry
     xc contribution           =     -49.68666453 Ry
     ewald contribution        =     -49.30678791 Ry

     convergence has been achieved in   8 iterations


     Computing stress (Cartesian axis) and pressure

          total   stress  (Ry/bohr**3)                   (kbar)     P=       19.58
   0.00011313  -0.00000001  -0.00000002           16.64       -0.00       -0.00
  -0.00000001   0.00011313  -0.00000000           -0.00       16.64       -0.00
  -0.00000002  -0.00000000   0.00017313           -0.00       -0.00       25.47

     kinetic stress (kbar)   2312.18     -0.00      0.00
                               -0.00   2312.19      0.00
                                0.00      0.00   2189.18

     local   stress (kbar)    136.72      0.02      0.04
                                0.02    136.71      0.01
                                0.04      0.01   -580.51

     nonloc. stress (kbar)   2343.48     -0.00     -0.00
                               -0.00   2343.48     -0.00
                               -0.00     -0.00   2333.21

     hartree stress (kbar)    183.20     -0.01     -0.01
                               -0.01    183.20     -0.00
                               -0.01     -0.00    358.52

     exc-cor stress (kbar)   6926.86     -0.00     -0.00
                               -0.00   6926.86     -0.00
                               -0.00     -0.00   6929.15

     corecor stress (kbar)  -8183.92      0.00      0.00
                                0.00  -8183.93      0.00
                                0.00      0.00  -8175.83

     ewald   stress (kbar)  -3701.88     -0.01     -0.03
                               -0.01  -3701.88     -0.01
                               -0.03     -0.01  -3028.25

     hubbard stress (kbar)      0.00      0.00      0.00
                                0.00      0.00      0.00
                                0.00      0.00      0.00

     DFT-D   stress (kbar)      0.00      0.00      0.00
                                0.00      0.00      0.00
                                0.00      0.00      0.00

     XDM     stress (kbar)      0.00      0.00      0.00
                                0.00      0.00      0.00
                                0.00      0.00      0.00

     dft-nl  stress (kbar)      0.00      0.00      0.00
                                0.00      0.00      0.00
                                0.00      0.00      0.00

     TS-vdW  stress (kbar)      0.00      0.00      0.00
                                0.00      0.00      0.00
                                0.00      0.00      0.00

     MDB     stress (kbar)      0.00      0.00      0.00
                                0.00      0.00      0.00
                                0.00      0.00      0.00

     3D-RISM stress (kbar)      0.00      0.00      0.00
                                0.00      0.00      0.00
                                0.00      0.00      0.00


     Writing all to output data dir /home/user/workspace/qe_runs/strain_trans_p0050/out/tetrans_p0050.save/ :
     XML data file, charge density, pseudopotentials, collected wavefunctions

     init_run     :      9.30s CPU     19.80s WALL (       1 calls)
     electrons    :    225.21s CPU    349.32s WALL (       1 calls)
     stress       :      8.73s CPU      9.13s WALL (       1 calls)

     Called by init_run:
     wfcinit      :      8.35s CPU     17.29s WALL (       1 calls)
     wfcinit:atom :      0.05s CPU      0.15s WALL (     112 calls)
     wfcinit:wfcr :      8.12s CPU     16.81s WALL (     112 calls)
     potinit      :      0.20s CPU      0.40s WALL (       1 calls)
     hinit0       :      0.44s CPU      0.90s WALL (       1 calls)

     Called by electrons:
     c_bands      :    198.66s CPU    313.88s WALL (       8 calls)
     sum_band     :     24.20s CPU     31.77s WALL (       8 calls)
     v_of_rho     :      0.22s CPU      0.29s WALL (       9 calls)
     v_h          :      0.01s CPU      0.02s WALL (       9 calls)
     v_xc         :      0.23s CPU      0.30s WALL (      10 calls)
     newd         :      2.23s CPU      4.29s WALL (       9 calls)
     mix_rho      :      0.13s CPU      0.16s WALL (       8 calls)

     Called by c_bands:
     init_us_2    :      1.97s CPU      2.34s WALL (    2016 calls)
     cegterg      :    175.80s CPU    284.89s WALL (     896 calls)

     Called by sum_band:
     sum_band:wei :      0.02s CPU      0.02s WALL (       8 calls)
     sum_band:loo :     22.00s CPU     27.67s WALL (       8 calls)
     sum_band:buf :      0.40s CPU      0.46s WALL (     896 calls)
     sum_band:ini :      0.85s CPU      0.89s WALL (     896 calls)
     sum_band:cal :      2.05s CPU      2.56s WALL (     896 calls)
     sum_band:bec :      2.10s CPU      2.49s WALL (     896 calls)
     addusdens    :      2.07s CPU      3.96s WALL (       8 calls)
                                        0.00s GPU  (       8 calls)
     addusd:skk   :      0.00s CPU      0.00s WALL (       8 calls)
                                        0.00s GPU  (       8 calls)

     Called by *egterg:
     cdiaghg      :      5.14s CPU      8.43s WALL (    5176 calls)
     cegterg:over :     10.83s CPU     19.68s WALL (    4280 calls)
     cegterg:upda :      3.47s CPU      5.35s WALL (    4280 calls)
     cegterg:last :      6.86s CPU      9.99s WALL (    2526 calls)
     h_psi        :    142.82s CPU    233.96s WALL (    5288 calls)
     s_psi        :      6.06s CPU      8.52s WALL (    5288 calls)
     g_psi        :      1.19s CPU      1.75s WALL (    4280 calls)

     Called by h_psi:
     h_psi:calbec :     10.27s CPU     17.23s WALL (    5288 calls)
     vloc_psi     :    125.73s CPU    206.79s WALL (    5288 calls)
                                        0.00s GPU  (    5288 calls)
     add_vuspsi   :      6.10s CPU      8.92s WALL (    5288 calls)

     General routines
     calbec       :     15.30s CPU     22.77s WALL (    7640 calls)
     fft          :      0.38s CPU      0.62s WALL (     228 calls)
     ffts         :      0.18s CPU      0.34s WALL (      68 calls)
     fftw         :    127.42s CPU    207.60s WALL (  369580 calls)
     interpolate  :      0.19s CPU      0.35s WALL (      36 calls)

     Parallel routines

     PWSCF        :   4m 3.51s CPU   6m19.00s WALL


   This run was terminated on:   8: 7: 2  20Aug2026            

=------------------------------------------------------------------------------=
   JOB DONE.
=------------------------------------------------------------------------------=
