
     Program PWSCF v.7.5 starts on 20Aug2026 at 15: 8:22 

     This program is part of the open-source Quantum ESPRESSO suite
     for quantum simulation of materials; please cite
         "P. Giannozzi et al., J. Phys.:Condens. Matter 21 395502 (2009);
         "P. Giannozzi et al., J. Phys.:Condens. Matter 29 465901 (2017);
         "P. Giannozzi et al., J. Chem. Phys. 152 154105 (2020);
          URL http://www.quantum-espresso.org", 
     in publications or presentations arising from this work. More details at
     http://www.quantum-espresso.org/quote

     Parallel version (MPI & OpenMP), running on       2 processor cores
     Number of MPI processes:                 2
     Threads/MPI process:                     1

     MPI processes distributed on     1 nodes
     2375 MiB available memory on the printing compute node when the environment starts

     Reading input from strain_H_single/scf.in

     Current dimensions of program PWSCF are:
     Max number of different atomic species (ntypx) = 10
     Max number of k-points (npk) =  40000
     Max angular momentum in pseudopotentials (lmaxx) =  4
     file Te.rel-pbe-n-rrkjus_psl.1.0.0.UPF: wavefunction(s)  5S renormalized
     Message from routine setup:
     using ibrav=0 with symmetry is DISCOURAGED, use correct ibrav instead

     R & G space division:  proc/nbgrp/npool/nimage =       2
     Subspace diagonalization in iterative solution of the eigenvalue problem:
     a serial algorithm will be used


     Parallelization info
     --------------------
     sticks:   dense  smooth     PW     G-vecs:    dense   smooth      PW
     Min         741     483    141                30207    16402    2589
     Max         742     484    142                30208    16403    2592
     Sum        1483     967    283                60415    32805    5181

     Using Slab Decomposition



     bravais-lattice index     =            0
     lattice parameter (alat)  =       8.4229  a.u.
     unit-cell volume          =     688.3873 (a.u.)^3
     number of atoms/cell      =            3
     number of atomic types    =            1
     number of electrons       =        18.00
     number of Kohn-Sham states=           28
     kinetic-energy cutoff     =      50.0000  Ry
     charge density cutoff     =     300.0000  Ry
     scf convergence threshold =      1.0E-08
     mixing beta               =       0.7000
     number of iterations used =            8  plain     mixing
     Exchange-correlation= PBE
                           (   1   4   3   4   0   0   0)
     Non magnetic calculation with spin-orbit


     celldm(1)=   8.422887  celldm(2)=   0.000000  celldm(3)=   0.000000
     celldm(4)=   0.000000  celldm(5)=   0.000000  celldm(6)=   0.000000

     crystal axes: (cart. coord. in units of alat)
               a(1) = (   1.000000   0.000000   0.000000 )  
               a(2) = (  -0.500000   0.866025   0.000000 )  
               a(3) = (   0.000000   0.000000   1.330207 )  

     reciprocal axes: (cart. coord. in units 2 pi/alat)
               b(1) = (  1.000000  0.577350 -0.000000 )  
               b(2) = (  0.000000  1.154701  0.000000 )  
               b(3) = (  0.000000 -0.000000  0.751763 )  


     PseudoPot. # 1 for Te read from file:
     /home/user/workspace/qe_runs/pseudo/Te.rel-pbe-n-rrkjus_psl.1.0.0.UPF
     MD5 check sum: 7fd30b6833abd190471e4dcc2367351b
     Pseudo is Ultrasoft + core correction, Zval =  6.0
     Generated using &quot;atomic&quot; code by A. Dal Corso  v.6.3
     Using radial grid of 1245 points, 10 beta functions with: 
                l(1) =   0
                l(2) =   0
                l(3) =   1
                l(4) =   1
                l(5) =   1
                l(6) =   1
                l(7) =   2
                l(8) =   2
                l(9) =   2
               l(10) =   2
     Q(r) pseudized with 0 coefficients 


     atomic species   valence    mass     pseudopotential
     Te                6.00   127.60000     Te( 1.00)

      6 Sym. Ops. (no inversion) found ( 4 have fractional translation)



   Cartesian axes

     site n.     atom                  positions (alat units)
         1        Te     tau(   1) = (   0.2636000   0.0000000   0.4434024  )
         2        Te     tau(   2) = (  -0.1318000   0.2282843   0.8868049  )
         3        Te     tau(   3) = (  -0.1318000  -0.2282843   0.0000000  )

     number of k points=     1  Gaussian smearing, width (Ry)=  0.0100
                       cart. coord. in units 2pi/alat
        k(    1) = (   0.3333333   0.5773503   0.3758813), wk =   1.0000000

     Dense  grid:    60415 G-vectors     FFT dimensions: (  48,  48,  72)

     Smooth grid:    32805 G-vectors     FFT dimensions: (  40,  40,  54)

     Estimated max dynamical RAM per process >     346.45 MB

     Estimated total dynamical RAM >     692.90 MB

     Initial potential from superposition of free atoms

     starting charge      17.9993, renormalised to      18.0000
     Starting wfcs are   24 randomized atomic wfcs +    4 random wfcs

     total cpu time spent up to now is        1.2 secs

     per-process dynamical memory:    51.7 Mb

     Self-consistent Calculation

     iteration #  1     ecut=    50.00 Ry     beta= 0.70
     Davidson diagonalization with overlap
     ethr =  1.00E-02,  avg # of iterations =  8.0

     Threshold (ethr) on eigenvalues was too large:
     Diagonalizing with lowered threshold

     Davidson diagonalization with overlap
     ethr =  1.57E-04,  avg # of iterations = 11.0

     total cpu time spent up to now is        2.9 secs

     total energy              =     -85.52610370 Ry
     estimated scf accuracy    <       0.02499302 Ry

     iteration #  2     ecut=    50.00 Ry     beta= 0.70
     Davidson diagonalization with overlap
     ethr =  1.39E-04,  avg # of iterations =  1.0

     total cpu time spent up to now is        3.8 secs

     total energy              =     -85.52686036 Ry
     estimated scf accuracy    <       0.00164751 Ry

     iteration #  3     ecut=    50.00 Ry     beta= 0.70
     Davidson diagonalization with overlap
     ethr =  9.15E-06,  avg # of iterations =  6.0

     total cpu time spent up to now is        4.8 secs

     total energy              =     -85.52713419 Ry
     estimated scf accuracy    <       0.00179264 Ry

     iteration #  4     ecut=    50.00 Ry     beta= 0.70
     Davidson diagonalization with overlap
     ethr =  9.15E-06,  avg # of iterations =  1.0

     total cpu time spent up to now is        5.8 secs

     total energy              =     -85.52739590 Ry
     estimated scf accuracy    <       0.00001402 Ry

     iteration #  5     ecut=    50.00 Ry     beta= 0.70
     Davidson diagonalization with overlap
     ethr =  7.79E-08,  avg # of iterations =  6.0

     total cpu time spent up to now is        6.8 secs

     total energy              =     -85.52740631 Ry
     estimated scf accuracy    <       0.00000076 Ry

     iteration #  6     ecut=    50.00 Ry     beta= 0.70
     Davidson diagonalization with overlap
     ethr =  4.21E-09,  avg # of iterations =  2.0

     total cpu time spent up to now is        7.8 secs

     total energy              =     -85.52740640 Ry
     estimated scf accuracy    <       0.00000005 Ry

     iteration #  7     ecut=    50.00 Ry     beta= 0.70
     Davidson diagonalization with overlap
     ethr =  2.93E-10,  avg # of iterations =  5.0

     total cpu time spent up to now is        8.7 secs

     End of self-consistent calculation

          k = 0.3333 0.5774 0.3759 (  4116 PWs)   bands (ev):

    -5.8142  -5.8142  -5.8084  -5.8012  -3.9995  -3.9995   0.7702   0.7702
     0.8884   0.9401   1.0108   1.0108   4.8729   4.8729   5.8240   5.8240
     6.0704   6.2004   6.2283   6.2283   7.3228   7.3802   7.5509   7.5509
    11.8886  11.8887  12.5298  12.5614

     the Fermi energy is     6.1871 ev

!    total energy              =     -85.52740641 Ry
     estimated scf accuracy    <          1.8E-09 Ry
     smearing contrib. (-TS)   =      -0.00929707 Ry
     internal energy E=F+TS    =     -85.51810934 Ry

     The total energy is F=E-TS. E is the sum of the following terms:
     one-electron contribution =      10.29422652 Ry
     hartree contribution      =       3.40596492 Ry
     xc contribution           =     -49.73654477 Ry
     ewald contribution        =     -49.48175600 Ry

     convergence has been achieved in   7 iterations

     Writing all to output data dir /home/user/workspace/qe_runs/strain_H_single/out/teH.save/ :
     XML data file, charge density, pseudopotentials, collected wavefunctions

     init_run     :      0.97s CPU      1.10s WALL (       1 calls)
     electrons    :      5.68s CPU      7.49s WALL (       1 calls)

     Called by init_run:
     wfcinit      :      0.04s CPU      0.04s WALL (       1 calls)
     potinit      :      0.19s CPU      0.20s WALL (       1 calls)
     hinit0       :      0.46s CPU      0.47s WALL (       1 calls)

     Called by electrons:
     c_bands      :      1.24s CPU      1.28s WALL (       8 calls)
     sum_band     :      2.31s CPU      3.33s WALL (       8 calls)
     v_of_rho     :      0.21s CPU      0.21s WALL (       8 calls)
     newd         :      2.07s CPU      2.91s WALL (       8 calls)
     mix_rho      :      0.08s CPU      0.09s WALL (       8 calls)

     Called by c_bands:
     init_us_2    :      0.02s CPU      0.02s WALL (      17 calls)
     cegterg      :      1.04s CPU      1.07s WALL (       8 calls)

     Called by *egterg:
     cdiaghg      :      0.04s CPU      0.04s WALL (      47 calls)
     h_psi        :      0.82s CPU      0.85s WALL (      49 calls)
     s_psi        :      0.05s CPU      0.05s WALL (      49 calls)
     g_psi        :      0.01s CPU      0.01s WALL (      40 calls)

     Called by h_psi:
     h_psi:calbec :      0.05s CPU      0.06s WALL (      49 calls)
     vloc_psi     :      0.71s CPU      0.73s WALL (      49 calls)
                                        0.00s GPU  (      49 calls)
     add_vuspsi   :      0.05s CPU      0.05s WALL (      49 calls)

     General routines
     calbec       :      0.07s CPU      0.08s WALL (      57 calls)
     fft          :      0.34s CPU      0.35s WALL (     190 calls)
     ffts         :      0.16s CPU      0.17s WALL (      64 calls)
     fftw         :      0.72s CPU      0.74s WALL (    3104 calls)
     interpolate  :      0.18s CPU      0.19s WALL (      32 calls)

     Parallel routines

     PWSCF        :      6.77s CPU      8.75s WALL


   This run was terminated on:  15: 8:30  20Aug2026            

=------------------------------------------------------------------------------=
   JOB DONE.
=------------------------------------------------------------------------------=
