
     Program PWSCF v.7.5 starts on 20Aug2026 at 15:36:41 

     This program is part of the open-source Quantum ESPRESSO suite
     for quantum simulation of materials; please cite
         "P. Giannozzi et al., J. Phys.:Condens. Matter 21 395502 (2009);
         "P. Giannozzi et al., J. Phys.:Condens. Matter 29 465901 (2017);
         "P. Giannozzi et al., J. Chem. Phys. 152 154105 (2020);
          URL http://www.quantum-espresso.org", 
     in publications or presentations arising from this work. More details at
     http://www.quantum-espresso.org/quote

     Parallel version (MPI & OpenMP), running on       2 processor cores
     Number of MPI processes:                 2
     Threads/MPI process:                     1

     MPI processes distributed on     1 nodes
     1924 MiB available memory on the printing compute node when the environment starts

     Reading input from strain_hc2b_pois_m0050/bands.in

     Current dimensions of program PWSCF are:
     Max number of different atomic species (ntypx) = 10
     Max number of k-points (npk) =  40000
     Max angular momentum in pseudopotentials (lmaxx) =  4
     file Te.rel-pbe-n-rrkjus_psl.1.0.0.UPF: wavefunction(s)  5S renormalized

     Atomic positions and unit cell read from directory:
     /home/user/workspace/qe_runs/strain_hc2b_pois_m0050/out/tehc2bpois_m0050.save/

     Message from routine setup:
     using ibrav=0 with symmetry is DISCOURAGED, use correct ibrav instead

     R & G space division:  proc/nbgrp/npool/nimage =       2
     Subspace diagonalization in iterative solution of the eigenvalue problem:
     a serial algorithm will be used


     Parallelization info
     --------------------
     sticks:   dense  smooth     PW     G-vecs:    dense   smooth      PW
     Min        1374     690    198                77050    27275    4264
     Max        1375     691    199                77053    27276    4265
     Sum        2749    1381    397               154103    54551    8529

     Using Slab Decomposition



     bravais-lattice index     =            0
     lattice parameter (alat)  =       8.4493  a.u.
     unit-cell volume          =     689.2434 (a.u.)^3
     number of atoms/cell      =            3
     number of atomic types    =            1
     number of electrons       =        18.00
     number of Kohn-Sham states=           28
     kinetic-energy cutoff     =      70.0000  Ry
     charge density cutoff     =     560.0000  Ry
     Exchange-correlation= PBE
                           (   1   4   3   4   0   0   0)
     Non magnetic calculation with spin-orbit


     celldm(1)=   8.449272  celldm(2)=   0.000000  celldm(3)=   0.000000
     celldm(4)=   0.000000  celldm(5)=   0.000000  celldm(6)=   0.000000

     crystal axes: (cart. coord. in units of alat)
               a(1) = (   1.000000   0.000000   0.000000 )  
               a(2) = (  -0.500000   0.866025   0.000000 )  
               a(3) = (   0.000000   0.000000   1.319423 )  

     reciprocal axes: (cart. coord. in units 2 pi/alat)
               b(1) = (  1.000000  0.577350 -0.000000 )  
               b(2) = (  0.000000  1.154701  0.000000 )  
               b(3) = (  0.000000 -0.000000  0.757907 )  


     PseudoPot. # 1 for Te read from file:
     /home/user/workspace/qe_runs/pseudo/Te.rel-pbe-n-rrkjus_psl.1.0.0.UPF
     MD5 check sum: 7fd30b6833abd190471e4dcc2367351b
     Pseudo is Ultrasoft + core correction, Zval =  6.0
     Generated using &quot;atomic&quot; code by A. Dal Corso  v.6.3
     Using radial grid of 1245 points, 10 beta functions with: 
                l(1) =   0
                l(2) =   0
                l(3) =   1
                l(4) =   1
                l(5) =   1
                l(6) =   1
                l(7) =   2
                l(8) =   2
                l(9) =   2
               l(10) =   2
     Q(r) pseudized with 0 coefficients 


     atomic species   valence    mass     pseudopotential
     Te                6.00   127.60000     Te( 1.00)

      6 Sym. Ops. (no inversion) found ( 4 have fractional translation)



   Cartesian axes

     site n.     atom                  positions (alat units)
         1        Te     tau(   1) = (   0.2636000   0.0000000   0.4398077  )
         2        Te     tau(   2) = (  -0.1318000   0.2282843   0.8796155  )
         3        Te     tau(   3) = (  -0.1318000  -0.2282843   0.0000000  )

     number of k points=     7  Gaussian smearing, width (Ry)=  0.0100
                       cart. coord. in units 2pi/alat
        k(    1) = (   0.3333333   0.5773502   0.0000000), wk =   0.1428571
        k(    2) = (   0.3333333   0.5773502   0.1515814), wk =   0.1428571
        k(    3) = (   0.3333333   0.5773502   0.3031628), wk =   0.1428571
        k(    4) = (   0.3333333   0.5773502   0.3789535), wk =   0.1428571
        k(    5) = (   0.3333333   0.5773502   0.4547442), wk =   0.1428571
        k(    6) = (   0.3333333   0.5773502   0.6063256), wk =   0.1428571
        k(    7) = (   0.0000000   0.0000000   0.3789535), wk =   0.1428571

     Dense  grid:   154103 G-vectors     FFT dimensions: (  64,  64,  90)

     Smooth grid:    54551 G-vectors     FFT dimensions: (  45,  45,  60)

     Estimated max dynamical RAM per process >     784.26 MB

     Estimated total dynamical RAM >       1.53 GB

     The potential is recalculated from file :
     /home/user/workspace/qe_runs/strain_hc2b_pois_m0050/out/tehc2bpois_m0050.save/charge-density

     Starting wfcs are   24 randomized atomic wfcs +    4 random wfcs

     Band Structure Calculation
     Davidson diagonalization with overlap
     c_bands:  1 eigenvalues not converged

     ethr =  5.56E-11,  avg # of iterations = 66.1

     total cpu time spent up to now is       21.6 secs

     End of band structure calculation

          k = 0.3333 0.5774 0.0000 (  6831 PWs)   bands (ev):

    -6.5232  -6.5232  -4.6703  -4.6673  -4.6673  -4.6556   1.2290   1.4179
     1.4179   1.4319   2.7647   2.7647   2.8608   3.0576   3.0576   3.0927
     3.4526   3.4526   8.7271   8.7691   8.9348   8.9348   9.1797   9.1797
    10.8166  10.8166  11.8265  11.8265

          k = 0.3333 0.5774 0.1516 (  6837 PWs)   bands (ev):

    -6.4177  -6.4121  -5.1479  -5.1427  -4.2794  -4.2687   0.8602   0.8881
     1.2281   1.3759   1.9607   2.0754   3.0239   3.2037   4.0731   4.1374
     4.4619   4.6710   8.0333   8.1804   8.5796   8.6376   8.6500   8.7106
    11.1084  11.1587  11.5770  11.6195

          k = 0.3333 0.5774 0.3032 (  6837 PWs)   bands (ev):

    -6.1123  -6.1026  -5.6606  -5.6503  -4.0391  -4.0331   0.7608   0.7643
     0.8263   0.8625   1.1598   1.2657   4.3850   4.4870   5.3595   5.5711
     5.6208   5.9789   6.6285   6.7232   7.5320   7.7050   7.7833   7.8332
    11.7509  11.7698  11.9816  12.0258

          k = 0.3333 0.5774 0.3790 (  6816 PWs)   bands (ev):

    -5.8999  -5.8999  -5.8929  -5.8857  -4.0030  -4.0030   0.7282   0.7282
     0.8764   0.9296   1.0028   1.0028   4.8405   4.8405   5.7993   5.7993
     6.0486   6.1867   6.1990   6.1990   7.3226   7.3857   7.5563   7.5563
    11.8591  11.8591  12.5393  12.5424

          k = 0.3333 0.5774 0.4547 (  6837 PWs)   bands (ev):

    -6.1123  -6.1026  -5.6606  -5.6503  -4.0391  -4.0331   0.7608   0.7643
     0.8263   0.8625   1.1598   1.2657   4.3850   4.4870   5.3595   5.5711
     5.6208   5.9789   6.6285   6.7232   7.5320   7.7050   7.7833   7.8332
    11.7509  11.7698  11.9816  12.0258

          k = 0.3333 0.5774 0.6063 (  6837 PWs)   bands (ev):

    -6.4177  -6.4121  -5.1479  -5.1427  -4.2794  -4.2687   0.8602   0.8881
     1.2281   1.3759   1.9607   2.0754   3.0239   3.2037   4.0731   4.1374
     4.4619   4.6710   8.0333   8.1804   8.5796   8.6376   8.6500   8.7106
    11.1084  11.1587  11.5770  11.6195

          k = 0.0000 0.0000 0.3790 (  6822 PWs)   bands (ev):

    -6.7753  -6.7753  -6.7722  -6.7722  -2.1766  -2.1766   1.8357   1.8357
     3.1261   3.1261   3.4101   3.4101   4.5280   4.5280   4.7420   4.7420
     5.0183   5.0183   6.4267   6.4267   6.5102   6.5102   6.7457   6.7457
    10.0336  10.0336  11.2652  11.2652

     Writing all to output data dir /home/user/workspace/qe_runs/strain_hc2b_pois_m0050/out/tehc2bpois_m0050.save/ :
     XML data file, pseudopotentials, collected wavefunctions

     init_run     :      1.32s CPU      1.60s WALL (       1 calls)
     electrons    :     19.39s CPU     19.84s WALL (       1 calls)

     Called by init_run:
     wfcinit      :      0.00s CPU      0.00s WALL (       1 calls)
     potinit      :      0.17s CPU      0.20s WALL (       1 calls)
     hinit0       :      0.51s CPU      0.52s WALL (       1 calls)

     Called by electrons:
     c_bands      :     19.39s CPU     19.84s WALL (       1 calls)
     v_of_rho     :      0.06s CPU      0.07s WALL (       1 calls)
     newd         :      0.59s CPU      0.84s WALL (       1 calls)

     Called by c_bands:
     init_us_2    :      0.01s CPU      0.01s WALL (       7 calls)
     cegterg      :     18.60s CPU     19.02s WALL (      26 calls)

     Called by *egterg:
     cdiaghg      :      0.41s CPU      0.42s WALL (     470 calls)
     h_psi        :     14.47s CPU     14.85s WALL (     496 calls)
     s_psi        :      0.79s CPU      0.80s WALL (     496 calls)
     g_psi        :      0.19s CPU      0.19s WALL (     463 calls)

     Called by h_psi:
     h_psi:calbec :      0.98s CPU      1.00s WALL (     496 calls)
     vloc_psi     :     12.64s CPU     12.99s WALL (     496 calls)
                                        0.00s GPU  (     496 calls)
     add_vuspsi   :      0.78s CPU      0.79s WALL (     496 calls)

     General routines
     calbec       :      0.98s CPU      1.00s WALL (     496 calls)
     fft          :      0.18s CPU      0.19s WALL (      19 calls)
     ffts         :      0.10s CPU      0.10s WALL (       4 calls)
     fftw         :     11.35s CPU     11.67s WALL (   24316 calls)
     interpolate  :      0.11s CPU      0.11s WALL (       4 calls)
     davcio       :      0.01s CPU      0.02s WALL (      14 calls)

     Parallel routines

     PWSCF        :     20.86s CPU     21.71s WALL


   This run was terminated on:  15:37: 3  20Aug2026            

=------------------------------------------------------------------------------=
   JOB DONE.
=------------------------------------------------------------------------------=
