
     Program PWSCF v.7.5 starts on 20Aug2026 at 15:34:47 

     This program is part of the open-source Quantum ESPRESSO suite
     for quantum simulation of materials; please cite
         "P. Giannozzi et al., J. Phys.:Condens. Matter 21 395502 (2009);
         "P. Giannozzi et al., J. Phys.:Condens. Matter 29 465901 (2017);
         "P. Giannozzi et al., J. Chem. Phys. 152 154105 (2020);
          URL http://www.quantum-espresso.org", 
     in publications or presentations arising from this work. More details at
     http://www.quantum-espresso.org/quote

     Parallel version (MPI & OpenMP), running on       2 processor cores
     Number of MPI processes:                 2
     Threads/MPI process:                     1

     MPI processes distributed on     1 nodes
     1885 MiB available memory on the printing compute node when the environment starts

     Reading input from strain_hc2b_pois_m0050/scf.in

     Current dimensions of program PWSCF are:
     Max number of different atomic species (ntypx) = 10
     Max number of k-points (npk) =  40000
     Max angular momentum in pseudopotentials (lmaxx) =  4
     file Te.rel-pbe-n-rrkjus_psl.1.0.0.UPF: wavefunction(s)  5S renormalized
     Message from routine setup:
     using ibrav=0 with symmetry is DISCOURAGED, use correct ibrav instead

     R & G space division:  proc/nbgrp/npool/nimage =       2
     Subspace diagonalization in iterative solution of the eigenvalue problem:
     a serial algorithm will be used


     Parallelization info
     --------------------
     sticks:   dense  smooth     PW     G-vecs:    dense   smooth      PW
     Min        1374     690    190                77050    27275    4113
     Max        1375     691    195                77053    27276    4114
     Sum        2749    1381    385               154103    54551    8227

     Using Slab Decomposition



     bravais-lattice index     =            0
     lattice parameter (alat)  =       8.4493  a.u.
     unit-cell volume          =     689.2434 (a.u.)^3
     number of atoms/cell      =            3
     number of atomic types    =            1
     number of electrons       =        18.00
     number of Kohn-Sham states=           28
     kinetic-energy cutoff     =      70.0000  Ry
     charge density cutoff     =     560.0000  Ry
     scf convergence threshold =      1.0E-08
     mixing beta               =       0.7000
     number of iterations used =            8  plain     mixing
     Exchange-correlation= PBE
                           (   1   4   3   4   0   0   0)
     Non magnetic calculation with spin-orbit


     celldm(1)=   8.449272  celldm(2)=   0.000000  celldm(3)=   0.000000
     celldm(4)=   0.000000  celldm(5)=   0.000000  celldm(6)=   0.000000

     crystal axes: (cart. coord. in units of alat)
               a(1) = (   1.000000   0.000000   0.000000 )  
               a(2) = (  -0.500000   0.866025   0.000000 )  
               a(3) = (   0.000000   0.000000   1.319423 )  

     reciprocal axes: (cart. coord. in units 2 pi/alat)
               b(1) = (  1.000000  0.577350 -0.000000 )  
               b(2) = (  0.000000  1.154701  0.000000 )  
               b(3) = (  0.000000 -0.000000  0.757907 )  


     PseudoPot. # 1 for Te read from file:
     /home/user/workspace/qe_runs/pseudo/Te.rel-pbe-n-rrkjus_psl.1.0.0.UPF
     MD5 check sum: 7fd30b6833abd190471e4dcc2367351b
     Pseudo is Ultrasoft + core correction, Zval =  6.0
     Generated using &quot;atomic&quot; code by A. Dal Corso  v.6.3
     Using radial grid of 1245 points, 10 beta functions with: 
                l(1) =   0
                l(2) =   0
                l(3) =   1
                l(4) =   1
                l(5) =   1
                l(6) =   1
                l(7) =   2
                l(8) =   2
                l(9) =   2
               l(10) =   2
     Q(r) pseudized with 0 coefficients 


     atomic species   valence    mass     pseudopotential
     Te                6.00   127.60000     Te( 1.00)

      6 Sym. Ops. (no inversion) found ( 4 have fractional translation)



   Cartesian axes

     site n.     atom                  positions (alat units)
         1        Te     tau(   1) = (   0.2636000   0.0000000   0.4398077  )
         2        Te     tau(   2) = (  -0.1318000   0.2282843   0.8796155  )
         3        Te     tau(   3) = (  -0.1318000  -0.2282843   0.0000000  )

     number of k points=    34  Gaussian smearing, width (Ry)=  0.0100
                       cart. coord. in units 2pi/alat
        k(    1) = (   0.0000000   0.0000000   0.0000000), wk =   0.0046296
        k(    2) = (   0.0000000   0.0000000   0.1263178), wk =   0.0092593
        k(    3) = (   0.0000000   0.0000000   0.2526357), wk =   0.0092593
        k(    4) = (   0.0000000   0.0000000  -0.3789535), wk =   0.0046296
        k(    5) = (   0.0000000   0.1924501   0.0000000), wk =   0.0277778
        k(    6) = (   0.0000000   0.1924501   0.1263178), wk =   0.0277778
        k(    7) = (   0.0000000   0.1924501   0.2526357), wk =   0.0277778
        k(    8) = (   0.0000000   0.1924501  -0.3789535), wk =   0.0277778
        k(    9) = (   0.0000000   0.3849002   0.0000000), wk =   0.0277778
        k(   10) = (   0.0000000   0.3849002   0.1263178), wk =   0.0277778
        k(   11) = (   0.0000000   0.3849002   0.2526357), wk =   0.0277778
        k(   12) = (   0.0000000   0.3849002  -0.3789535), wk =   0.0277778
        k(   13) = (   0.0000000  -0.5773503   0.0000000), wk =   0.0138889
        k(   14) = (   0.0000000  -0.5773503   0.1263178), wk =   0.0277778
        k(   15) = (   0.0000000  -0.5773503   0.2526357), wk =   0.0277778
        k(   16) = (   0.0000000  -0.5773503  -0.3789535), wk =   0.0138889
        k(   17) = (   0.1666667   0.2886751   0.0000000), wk =   0.0277778
        k(   18) = (   0.1666667   0.2886751   0.1263178), wk =   0.0555556
        k(   19) = (   0.1666667   0.2886751   0.2526357), wk =   0.0555556
        k(   20) = (   0.1666667   0.2886751  -0.3789535), wk =   0.0277778
        k(   21) = (   0.1666667   0.4811252   0.0000000), wk =   0.0555556
        k(   22) = (   0.1666667   0.4811252   0.1263178), wk =   0.0555556
        k(   23) = (   0.1666667   0.4811252   0.2526357), wk =   0.0555556
        k(   24) = (   0.1666667   0.4811252  -0.3789535), wk =   0.0555556
        k(   25) = (   0.3333333   0.5773503   0.0000000), wk =   0.0092593
        k(   26) = (   0.3333333   0.5773503   0.1263178), wk =   0.0185185
        k(   27) = (   0.3333333   0.5773503   0.2526357), wk =   0.0185185
        k(   28) = (   0.3333333   0.5773503  -0.3789535), wk =   0.0092593
        k(   29) = (   0.0000000   0.1924501  -0.1263178), wk =   0.0277778
        k(   30) = (   0.0000000   0.1924501  -0.2526357), wk =   0.0277778
        k(   31) = (   0.0000000   0.3849002  -0.1263178), wk =   0.0277778
        k(   32) = (   0.0000000   0.3849002  -0.2526357), wk =   0.0277778
        k(   33) = (  -0.1666667   0.4811252  -0.1263178), wk =   0.0555556
        k(   34) = (  -0.1666667   0.4811252  -0.2526357), wk =   0.0555556

     Dense  grid:   154103 G-vectors     FFT dimensions: (  64,  64,  90)

     Smooth grid:    54551 G-vectors     FFT dimensions: (  45,  45,  60)

     Estimated max dynamical RAM per process >     968.85 MB

     Estimated total dynamical RAM >       1.89 GB

     Initial potential from superposition of free atoms

     starting charge      17.9993, renormalised to      18.0000
     Starting wfcs are   24 randomized atomic wfcs +    4 random wfcs

     total cpu time spent up to now is        5.0 secs

     per-process dynamical memory:   193.6 Mb

     Self-consistent Calculation

     iteration #  1     ecut=    70.00 Ry     beta= 0.70
     Davidson diagonalization with overlap
     ethr =  1.00E-02,  avg # of iterations =  9.3

     Threshold (ethr) on eigenvalues was too large:
     Diagonalizing with lowered threshold

     Davidson diagonalization with overlap
     ethr =  8.94E-05,  avg # of iterations =  8.6

     total cpu time spent up to now is       36.5 secs

     total energy              =     -85.64236743 Ry
     estimated scf accuracy    <       0.01538194 Ry

     iteration #  2     ecut=    70.00 Ry     beta= 0.70
     Davidson diagonalization with overlap
     ethr =  8.55E-05,  avg # of iterations =  1.4

     total cpu time spent up to now is       46.9 secs

     total energy              =     -85.64343508 Ry
     estimated scf accuracy    <       0.00112344 Ry

     iteration #  3     ecut=    70.00 Ry     beta= 0.70
     Davidson diagonalization with overlap
     ethr =  6.24E-06,  avg # of iterations =  5.8

     total cpu time spent up to now is       59.4 secs

     total energy              =     -85.64360378 Ry
     estimated scf accuracy    <       0.00004627 Ry

     iteration #  4     ecut=    70.00 Ry     beta= 0.70
     Davidson diagonalization with overlap
     ethr =  2.57E-07,  avg # of iterations =  4.5

     total cpu time spent up to now is       73.3 secs

     total energy              =     -85.64363468 Ry
     estimated scf accuracy    <       0.00000308 Ry

     iteration #  5     ecut=    70.00 Ry     beta= 0.70
     Davidson diagonalization with overlap
     ethr =  1.71E-08,  avg # of iterations =  3.2

     total cpu time spent up to now is       85.5 secs

     total energy              =     -85.64363561 Ry
     estimated scf accuracy    <       0.00000031 Ry

     iteration #  6     ecut=    70.00 Ry     beta= 0.70
     Davidson diagonalization with overlap
     ethr =  1.71E-09,  avg # of iterations =  2.6

     total cpu time spent up to now is       97.2 secs

     total energy              =     -85.64363569 Ry
     estimated scf accuracy    <       0.00000001 Ry

     iteration #  7     ecut=    70.00 Ry     beta= 0.70
     Davidson diagonalization with overlap
     ethr =  6.34E-11,  avg # of iterations =  4.6

     total cpu time spent up to now is      112.5 secs

     End of self-consistent calculation

          k = 0.0000 0.0000 0.0000 (  6881 PWs)   bands (ev):

    -7.6756  -7.6756  -4.3267  -4.3267  -4.3253  -4.3253   2.6965   2.6965
     2.9068   2.9068   3.3397   3.3397   4.2962   4.2962   4.3386   4.3386
     5.2087   5.2087   6.6475   6.6475   7.2694   7.2694   7.7645   7.7645
    10.9650  10.9650  10.9666  10.9667

          k = 0.0000 0.0000 0.1263 (  6822 PWs)   bands (ev):

    -7.5744  -7.5732  -5.2681  -5.2651  -3.3589  -3.3574   2.4968   2.5056
     2.8691   3.0604   3.1416   3.5875   4.2613   4.3488   4.4343   4.4868
     5.1237   5.2291   6.5175   6.5504   7.0334   7.1169   7.4794   7.4971
    10.6490  10.6868  11.5536  11.5560

          k = 0.0000 0.0000 0.2526 (  6810 PWs)   bands (ev):

    -7.2718  -7.2695  -6.0990  -6.0955  -2.5350  -2.5313   2.0494   2.0914
     3.0284   3.1219   3.1958   3.6087   4.3845   4.5084   4.5386   4.7595
     4.9626   5.1767   6.3779   6.4062   6.6596   6.8309   6.9368   7.0170
    10.2123  10.2301  11.2947  11.3252

          k = 0.0000 0.0000-0.3790 (  6822 PWs)   bands (ev):

    -6.7753  -6.7753  -6.7721  -6.7721  -2.1766  -2.1766   1.8357   1.8357
     3.1261   3.1261   3.4101   3.4101   4.5280   4.5280   4.7421   4.7421
     5.0183   5.0183   6.4267   6.4267   6.5102   6.5102   6.7457   6.7457
    10.0336  10.0336  11.2655  11.2675

          k = 0.0000 0.1925 0.0000 (  6835 PWs)   bands (ev):

    -7.4972  -7.4968  -4.3970  -4.3912  -4.2779  -4.2737   1.7227   1.8201
     2.2877   2.4387   2.7685   3.0075   4.5218   4.6941   4.9064   4.9925
     5.1821   5.2944   6.7437   6.8272   6.9859   7.0731   7.5225   7.6254
    10.3884  10.4292  10.9741  10.9833

          k = 0.0000 0.1925 0.1263 (  6832 PWs)   bands (ev):

    -7.3974  -7.3959  -5.2118  -5.2085  -3.4640  -3.4611   1.8161   1.8901
     1.9952   2.1295   2.8649   3.0565   4.6267   4.7598   4.9342   5.1322
     5.3344   5.4270   6.5984   6.6288   6.7627   6.9015   7.3991   7.4583
     9.9787   9.9878  11.6437  11.6656

          k = 0.0000 0.1925 0.2526 (  6809 PWs)   bands (ev):

    -7.1023  -7.0995  -5.9872  -5.9831  -2.8055  -2.8009   1.6901   1.7878
     2.1559   2.3392   2.9692   3.1512   4.4367   4.5043   4.6526   4.7471
     4.9153   5.0100   6.6310   6.7443   6.9467   7.1036   7.6753   7.6880
    10.0079  10.0344  11.4362  11.4723

          k = 0.0000 0.1925-0.3790 (  6822 PWs)   bands (ev):

    -6.6438  -6.6420  -6.6051  -6.6036  -2.5656  -2.5649   1.6638   1.7482
     2.6134   2.8611   2.9268   3.0935   3.9194   4.1440   4.2397   4.3903
     4.5896   4.7874   6.7609   6.9104   7.3136   7.4565   7.8662   7.8707
    10.4412  10.4628  10.9107  10.9432

          k = 0.0000 0.3849 0.0000 (  6798 PWs)   bands (ev):

    -7.0352  -7.0345  -4.7136  -4.7082  -4.1651  -4.1612   1.0406   1.0973
     1.6140   1.7812   2.2959   2.5149   3.5176   3.5936   4.8158   4.9672
     5.0525   5.1993   6.8655   6.9684   7.0894   7.1293   8.7749   8.7907
     9.3734   9.4029  11.9067  11.9352

          k = 0.0000 0.3849 0.1263 (  6810 PWs)   bands (ev):

    -6.9382  -6.9356  -5.1902  -5.1857  -3.7324  -3.7259   0.8802   0.9089
     1.3781   1.4808   2.4121   2.5533   4.2257   4.4824   4.6955   4.9736
     4.9960   5.2037   6.7959   6.8486   7.2686   7.3787   7.9057   7.9321
     9.3028   9.3639  12.3821  12.4207

          k = 0.0000 0.3849 0.2526 (  6823 PWs)   bands (ev):

    -6.6679  -6.6629  -5.7625  -5.7560  -3.4294  -3.4229   0.7119   0.7564
     1.6172   1.7379   2.5597   2.6747   3.9463   4.1104   4.3277   4.4336
     5.7818   5.8346   6.6780   6.7542   7.3076   7.4430   7.7728   8.1196
     9.7884   9.9241  12.3051  12.3346

          k = 0.0000 0.3849-0.3790 (  6812 PWs)   bands (ev):

    -6.3485  -6.3466  -6.1638  -6.1617  -3.3970  -3.3955   0.8027   0.8443
     2.1161   2.2411   2.4617   2.5742   3.6948   3.7587   3.9976   4.0722
     4.9728   5.0651   7.2291   7.4361   7.8981   8.0097   8.2634   8.4802
    10.4696  10.6174  11.5177  11.5472

          k = 0.0000-0.5774 0.0000 (  6788 PWs)   bands (ev):

    -6.6893  -6.6893  -5.0283  -5.0283  -4.1005  -4.1005   1.0227   1.0227
     1.5115   1.5115   2.3424   2.3424   2.5557   2.5557   4.8099   4.8099
     5.0967   5.0967   6.9188   6.9188   7.0314   7.0314   8.9983   8.9983
     9.7410   9.7410  13.2988  13.2988

          k = 0.0000-0.5774 0.1263 (  6816 PWs)   bands (ev):

    -6.6140  -6.6102  -5.1917  -5.1873  -4.0482  -4.0400   0.9733   1.0134
     1.1843   1.2979   2.2547   2.4131   3.1979   3.3805   4.4472   4.6190
     4.7663   4.8515   6.9081   6.9562   7.4858   7.7152   9.1937   9.2150
     9.3599   9.4721  12.9458  12.9658

          k = 0.0000-0.5774 0.2526 (  6826 PWs)   bands (ev):

    -6.3989  -6.3923  -5.5522  -5.5444  -3.9528  -3.9456   0.4550   0.4859
     1.6203   1.7300   2.3670   2.4805   3.6079   3.8858   4.0614   4.2612
     4.7833   4.9719   7.2691   7.3737   7.9044   7.9763   8.2674   8.5995
    10.0946  10.3124  11.8176  11.8427

          k = 0.0000-0.5774-0.3790 (  6828 PWs)   bands (ev):

    -6.1777  -6.1777  -5.8292  -5.8292  -3.9060  -3.9060   0.2682   0.2682
     2.1378   2.1378   2.2647   2.2647   3.5566   3.5566   3.9272   3.9272
     5.8133   5.8133   6.7874   6.7874   7.8144   7.8144   8.6471   8.6471
    10.5755  10.5755  11.3918  11.3918

          k = 0.1667 0.2887 0.0000 (  6789 PWs)   bands (ev):

    -7.1726  -7.1719  -4.5364  -4.5261  -4.2706  -4.2620   1.2260   1.3422
     1.4880   1.5982   2.8371   3.0022   4.0183   4.1747   4.3149   4.3834
     4.7846   4.8327   7.4954   7.5334   7.5829   7.6200   7.9314   7.9471
    10.2399  10.2459  10.5243  10.5280

          k = 0.1667 0.2887 0.1263 (  6810 PWs)   bands (ev):

    -7.0804  -7.0783  -5.1116  -5.1075  -3.7628  -3.7574   1.2283   1.2914
     1.6608   1.7224   2.7456   2.8845   3.5914   3.6844   4.3501   4.4680
     5.4106   5.4764   6.8818   6.9497   7.6201   7.6655   8.2344   8.2676
    10.2149  10.2456  10.8432  10.8816

          k = 0.1667 0.2887 0.2526 (  6816 PWs)   bands (ev):

    -6.8075  -6.8036  -5.7808  -5.7756  -3.3227  -3.3167   1.2381   1.3310
     1.7496   1.8850   2.5851   2.6993   3.2956   3.4764   4.8021   4.9267
     5.1684   5.2818   6.8112   6.8636   7.6329   7.6457   8.4223   8.4773
    10.4053  10.4261  11.6385  11.6581

          k = 0.1667 0.2887-0.3790 (  6806 PWs)   bands (ev):

    -6.4113  -6.4082  -6.3144  -6.3113  -3.1566  -3.1550   1.2184   1.3160
     2.0352   2.0454   2.1610   2.2652   3.8731   4.0340   4.4376   4.4719
     5.1068   5.1925   6.7117   6.7911   8.0955   8.1121   8.3054   8.3271
    10.6113  10.6521  11.2284  11.2335

          k = 0.1667 0.4811 0.0000 (  6816 PWs)   bands (ev):

    -6.7150  -6.7142  -4.8464  -4.8402  -4.2925  -4.2870   1.0902   1.1636
     1.3577   1.4678   2.4279   2.6252   2.9396   3.0602   3.9625   4.0518
     4.2089   4.2498   7.7349   7.7724   8.0895   8.1031   9.2282   9.2384
     9.8492   9.8673  11.6570  11.6777

          k = 0.1667 0.4811 0.1263 (  6810 PWs)   bands (ev):

    -6.6306  -6.6268  -5.1484  -5.1431  -4.0643  -4.0554   0.8163   0.8494
     1.3232   1.4276   2.3440   2.4761   3.1639   3.3319   4.0456   4.1803
     4.8539   4.9777   7.2946   7.3569   8.3237   8.3545   8.4823   8.5478
     9.9970  10.0524  11.8560  11.8790

          k = 0.1667 0.4811 0.2526 (  6821 PWs)   bands (ev):

    -6.3947  -6.3877  -5.5929  -5.5846  -3.8651  -3.8572   0.5482   0.5913
     1.2934   1.3690   2.0789   2.1521   3.4185   3.5451   4.9692   5.1751
     5.5468   5.7988   6.6878   6.7461   7.4413   7.5113   8.4990   8.6138
    10.3248  10.4042  12.3332  12.3880

          k = 0.1667 0.4811-0.3790 (  6828 PWs)   bands (ev):

    -6.1296  -6.1272  -5.9165  -5.9135  -3.8195  -3.8179   0.5342   0.5619
     1.4689   1.4968   1.6119   1.6933   4.2616   4.3643   4.7464   4.7849
     5.5713   5.6416   6.8892   6.9939   7.5634   7.6285   8.1805   8.2296
    10.8072  10.8434  11.7365  11.7517

          k = 0.3333 0.5774 0.0000 (  6831 PWs)   bands (ev):

    -6.5232  -6.5232  -4.6703  -4.6673  -4.6673  -4.6556   1.2290   1.4179
     1.4179   1.4319   2.7647   2.7647   2.8608   3.0575   3.0575   3.0927
     3.4525   3.4525   8.7271   8.7691   8.9348   8.9348   9.1796   9.1796
    10.8166  10.8166  11.8265  11.8274

          k = 0.3333 0.5774 0.1263 (  6837 PWs)   bands (ev):

    -6.4500  -6.4453  -5.0631  -5.0594  -4.3360  -4.3257   0.9268   0.9409
     1.3125   1.4798   2.1247   2.2334   2.8588   3.0433   3.8614   3.9040
     4.2447   4.4395   8.2175   8.3744   8.6607   8.7802   8.7937   8.8210
    11.0158  11.0638  11.5931  11.6546

          k = 0.3333 0.5774 0.2526 (  6813 PWs)   bands (ev):

    -6.2337  -6.2251  -5.4917  -5.4824  -4.0973  -4.0883   0.7366   0.7911
     0.9068   0.9673   1.3867   1.4981   3.9114   4.0430   4.9478   5.1032
     5.2930   5.5862   7.1167   7.2305   7.9003   7.9954   8.1059   8.1309
    11.6339  11.6554  11.6621  11.6861

          k = 0.3333 0.5774-0.3790 (  6816 PWs)   bands (ev):

    -5.8999  -5.8999  -5.8929  -5.8857  -4.0031  -4.0031   0.7282   0.7282
     0.8764   0.9296   1.0028   1.0028   4.8405   4.8405   5.7993   5.7993
     6.0485   6.1867   6.1991   6.1991   7.3225   7.3857   7.5563   7.5563
    11.8592  11.8594  12.5459  12.5614

          k = 0.0000 0.1925-0.1263 (  6832 PWs)   bands (ev):

    -7.4000  -7.3985  -5.1840  -5.1807  -3.5216  -3.5187   1.7968   1.8869
     2.4993   2.6907   2.7796   3.1362   4.2328   4.2880   4.3784   4.5582
     4.7984   4.9874   6.9918   7.0953   7.3687   7.4939   7.7654   7.8676
    10.6701  10.7110  11.0075  11.0439

          k = 0.0000 0.1925-0.2526 (  6809 PWs)   bands (ev):

    -7.1081  -7.1053  -5.9700  -5.9660  -2.8566  -2.8521   1.8197   1.8903
     2.6189   2.7821   3.0375   3.2814   3.7282   3.9512   4.1484   4.2380
     4.6230   4.7721   7.0091   7.0532   7.6232   7.7121   7.7786   7.8418
    10.6156  10.6330  11.2791  11.2974

          k = 0.0000 0.3849-0.1263 (  6810 PWs)   bands (ev):

    -6.9554  -6.9530  -5.0299  -5.0260  -3.9857  -3.9794   1.3140   1.4296
     1.7944   1.9170   2.5285   2.7571   2.7971   3.0231   4.3471   4.6026
     4.7878   4.9554   6.9896   7.0975   7.6703   7.9162   9.1752   9.1881
     9.9678  10.0826  11.7517  11.7672

          k = 0.0000 0.3849-0.2526 (  6823 PWs)   bands (ev):

    -6.7054  -6.7012  -5.6516  -5.6462  -3.6165  -3.6102   1.1833   1.2581
     1.9400   2.0981   2.5335   2.6743   3.3010   3.6607   3.9078   4.0650
     4.4040   4.6260   7.4044   7.4656   8.2160   8.3832   8.8755   8.8892
    10.5997  10.7112  11.4969  11.5145

          k =-0.1667 0.4811-0.1263 (  6810 PWs)   bands (ev):

    -6.6414  -6.6377  -5.0635  -5.0586  -4.1764  -4.1673   1.0064   1.0572
     1.4109   1.4866   2.3881   2.5551   2.8017   3.1821   3.6358   3.8305
     5.0875   5.1517   7.1565   7.2139   8.2039   8.2589   9.2853   9.3088
    10.1070  10.1635  11.7054  11.7158

          k =-0.1667 0.4811-0.2526 (  6821 PWs)   bands (ev):

    -6.4177  -6.4114  -5.5270  -5.5196  -3.9465  -3.9386   0.7979   0.8719
     1.1897   1.2564   2.0368   2.1113   3.5368   3.7462   4.4316   4.5727
     5.3403   5.4721   6.9514   6.9774   8.0786   8.1507   8.5881   8.6286
    10.5867  10.6333  11.6988  11.7239

     the Fermi energy is     6.1621 ev

!    total energy              =     -85.64363569 Ry
     estimated scf accuracy    <          3.0E-09 Ry
     smearing contrib. (-TS)   =      -0.00009119 Ry
     internal energy E=F+TS    =     -85.64354450 Ry

     The total energy is F=E-TS. E is the sum of the following terms:
     one-electron contribution =      10.10828797 Ry
     hartree contribution      =       3.39549434 Ry
     xc contribution           =     -49.70343472 Ry
     ewald contribution        =     -49.44389209 Ry

     convergence has been achieved in   7 iterations

     Writing all to output data dir /home/user/workspace/qe_runs/strain_hc2b_pois_m0050/out/tehc2bpois_m0050.save/ :
     XML data file, charge density, pseudopotentials, collected wavefunctions

     init_run     :      4.32s CPU      4.82s WALL (       1 calls)
     electrons    :    100.13s CPU    107.50s WALL (       1 calls)

     Called by init_run:
     wfcinit      :      2.83s CPU      2.92s WALL (       1 calls)
     potinit      :      0.20s CPU      0.24s WALL (       1 calls)
     hinit0       :      0.51s CPU      0.52s WALL (       1 calls)

     Called by electrons:
     c_bands      :     77.96s CPU     79.44s WALL (       8 calls)
     sum_band     :     17.32s CPU     21.41s WALL (       8 calls)
     v_of_rho     :      0.49s CPU      0.52s WALL (       8 calls)
     newd         :      4.81s CPU      6.95s WALL (       8 calls)
     mix_rho      :      0.20s CPU      0.21s WALL (       8 calls)

     Called by c_bands:
     init_us_2    :      0.99s CPU      1.00s WALL (     578 calls)
     cegterg      :     67.36s CPU     68.79s WALL (     272 calls)

     Called by *egterg:
     cdiaghg      :      1.34s CPU      1.35s WALL (    1597 calls)
     h_psi        :     55.91s CPU     57.32s WALL (    1665 calls)
     s_psi        :      2.85s CPU      2.87s WALL (    1665 calls)
     g_psi        :      0.53s CPU      0.54s WALL (    1359 calls)

     Called by h_psi:
     h_psi:calbec :      3.48s CPU      3.55s WALL (    1665 calls)
     vloc_psi     :     49.33s CPU     50.64s WALL (    1665 calls)
                                        0.00s GPU  (    1665 calls)
     add_vuspsi   :      2.76s CPU      2.79s WALL (    1665 calls)

     General routines
     calbec       :      4.44s CPU      4.52s WALL (    1937 calls)
     fft          :      0.51s CPU      0.53s WALL (     190 calls)
     ffts         :      0.15s CPU      0.15s WALL (      64 calls)
     fftw         :     51.49s CPU     52.85s WALL (  108092 calls)
     interpolate  :      0.19s CPU      0.20s WALL (      32 calls)

     Parallel routines

     PWSCF        :   1m44.68s CPU   1m52.74s WALL


   This run was terminated on:  15:36:40  20Aug2026            

=------------------------------------------------------------------------------=
   JOB DONE.
=------------------------------------------------------------------------------=
