
     Program PWSCF v.7.5 starts on 20Aug2026 at  8:11:22 

     This program is part of the open-source Quantum ESPRESSO suite
     for quantum simulation of materials; please cite
         "P. Giannozzi et al., J. Phys.:Condens. Matter 21 395502 (2009);
         "P. Giannozzi et al., J. Phys.:Condens. Matter 29 465901 (2017);
         "P. Giannozzi et al., J. Chem. Phys. 152 154105 (2020);
          URL http://www.quantum-espresso.org", 
     in publications or presentations arising from this work. More details at
     http://www.quantum-espresso.org/quote

     Parallel version (MPI & OpenMP), running on       2 processor cores
     Number of MPI processes:                 2
     Threads/MPI process:                     1

     MPI processes distributed on     1 nodes
     774 MiB available memory on the printing compute node when the environment starts

     Reading input from strain_pois_m0025/scf.in

     Current dimensions of program PWSCF are:
     Max number of different atomic species (ntypx) = 10
     Max number of k-points (npk) =  40000
     Max angular momentum in pseudopotentials (lmaxx) =  4
     file Te.rel-pbe-n-rrkjus_psl.1.0.0.UPF: wavefunction(s)  5S renormalized
     Message from routine setup:
     using ibrav=0 with symmetry is DISCOURAGED, use correct ibrav instead

     R & G space division:  proc/nbgrp/npool/nimage =       2
     Subspace diagonalization in iterative solution of the eigenvalue problem:
     a serial algorithm will be used


     Parallelization info
     --------------------
     sticks:   dense  smooth     PW     G-vecs:    dense   smooth      PW
     Min         741     483    141                30217    16402    2583
     Max         742     484    142                30222    16403    2586
     Sum        1483     967    283                60439    32805    5169

     Using Slab Decomposition



     bravais-lattice index     =            0
     lattice parameter (alat)  =       8.4361  a.u.
     unit-cell volume          =     688.8246 (a.u.)^3
     number of atoms/cell      =            3
     number of atomic types    =            1
     number of electrons       =        18.00
     number of Kohn-Sham states=           26
     kinetic-energy cutoff     =      50.0000  Ry
     charge density cutoff     =     300.0000  Ry
     scf convergence threshold =      1.0E-08
     mixing beta               =       0.4000
     number of iterations used =            8  plain     mixing
     Exchange-correlation= PBE
                           (   1   4   3   4   0   0   0)
     Non magnetic calculation with spin-orbit


     celldm(1)=   8.436115  celldm(2)=   0.000000  celldm(3)=   0.000000
     celldm(4)=   0.000000  celldm(5)=   0.000000  celldm(6)=   0.000000

     crystal axes: (cart. coord. in units of alat)
               a(1) = (   1.000000   0.000000   0.000000 )  
               a(2) = (  -0.500000   0.866022   0.000000 )  
               a(3) = (   0.000000   0.000000   1.324806 )  

     reciprocal axes: (cart. coord. in units 2 pi/alat)
               b(1) = (  1.000000  0.577353 -0.000000 )  
               b(2) = (  0.000000  1.154705  0.000000 )  
               b(3) = (  0.000000 -0.000000  0.754827 )  


     PseudoPot. # 1 for Te read from file:
     /home/user/workspace/qe_runs/pseudo/Te.rel-pbe-n-rrkjus_psl.1.0.0.UPF
     MD5 check sum: 7fd30b6833abd190471e4dcc2367351b
     Pseudo is Ultrasoft + core correction, Zval =  6.0
     Generated using &quot;atomic&quot; code by A. Dal Corso  v.6.3
     Using radial grid of 1245 points, 10 beta functions with: 
                l(1) =   0
                l(2) =   0
                l(3) =   1
                l(4) =   1
                l(5) =   1
                l(6) =   1
                l(7) =   2
                l(8) =   2
                l(9) =   2
               l(10) =   2
     Q(r) pseudized with 0 coefficients 


     atomic species   valence    mass     pseudopotential
     Te                6.00   127.60000     Te( 1.00)

      2 Sym. Ops. (no inversion) found ( 1 have fractional translation)


                                    s                        frac. trans.

      isym =  1     identity                                     

 cryst.   s( 1) = (     1          0          0      )
                  (     0          1          0      )
                  (     0          0          1      )

 cart.    s( 1) = (  1.0000000  0.0000000  0.0000000 )
                  (  0.0000000  1.0000000  0.0000000 )
                  (  0.0000000  0.0000000  1.0000000 )


      isym =  2     180 deg rotation - cart. axis [1,0,0]        

 cryst.   s( 2) = (     1          0          0      )    f =(  0.0000000 )
                  (    -1         -1          0      )       (  0.0000000 )
                  (     0          0         -1      )       (  0.3333334 )

 cart.    s( 2) = (  1.0000000  0.0000000  0.0000000 )    f =(  0.0000000 )
                  (  0.0000000 -1.0000000  0.0000000 )       (  0.0000000 )
                  (  0.0000000  0.0000000 -1.0000000 )       (  0.4416022 )


   Cartesian axes

     site n.     atom                  positions (alat units)
         1        Te     tau(   1) = (   0.2636000   0.0000000   0.4416020  )
         2        Te     tau(   2) = (  -0.1318000   0.2282833   0.8832042  )
         3        Te     tau(   3) = (  -0.1318000  -0.2282833   0.0000000  )

   Crystallographic axes

     site n.     atom                  positions (cryst. coord.)
         1        Te     tau(   1) = (  0.2636000  0.0000000  0.3333333  )
         2        Te     tau(   2) = (  0.0000000  0.2636000  0.6666667  )
         3        Te     tau(   3) = ( -0.2636000 -0.2636000  0.0000000  )

     number of k points=    68  Gaussian smearing, width (Ry)=  0.0100
                       cart. coord. in units 2pi/alat
        k(    1) = (   0.0000000   0.0000000   0.0000000), wk =   0.0046296
        k(    2) = (   0.0000000   0.0000000   0.1258046), wk =   0.0092593
        k(    3) = (   0.0000000   0.0000000   0.2516091), wk =   0.0092593
        k(    4) = (   0.0000000   0.0000000  -0.3774137), wk =   0.0046296
        k(    5) = (   0.0000000   0.1924509   0.0000000), wk =   0.0092593
        k(    6) = (   0.0000000   0.1924509   0.1258046), wk =   0.0092593
        k(    7) = (   0.0000000   0.1924509   0.2516091), wk =   0.0092593
        k(    8) = (   0.0000000   0.1924509  -0.3774137), wk =   0.0092593
        k(    9) = (   0.0000000   0.3849018   0.0000000), wk =   0.0092593
        k(   10) = (   0.0000000   0.3849018   0.1258046), wk =   0.0092593
        k(   11) = (   0.0000000   0.3849018   0.2516091), wk =   0.0092593
        k(   12) = (   0.0000000   0.3849018  -0.3774137), wk =   0.0092593
        k(   13) = (   0.0000000  -0.5773527   0.0000000), wk =   0.0046296
        k(   14) = (   0.0000000  -0.5773527   0.1258046), wk =   0.0092593
        k(   15) = (   0.0000000  -0.5773527   0.2516091), wk =   0.0092593
        k(   16) = (   0.0000000  -0.5773527  -0.3774137), wk =   0.0046296
        k(   17) = (   0.1666667   0.0962255   0.0000000), wk =   0.0185185
        k(   18) = (   0.1666667   0.0962255   0.1258046), wk =   0.0185185
        k(   19) = (   0.1666667   0.0962255   0.2516091), wk =   0.0185185
        k(   20) = (   0.1666667   0.0962255  -0.3774137), wk =   0.0185185
        k(   21) = (   0.1666667   0.2886764   0.0000000), wk =   0.0185185
        k(   22) = (   0.1666667   0.2886764   0.1258046), wk =   0.0185185
        k(   23) = (   0.1666667   0.2886764   0.2516091), wk =   0.0185185
        k(   24) = (   0.1666667   0.2886764  -0.3774137), wk =   0.0185185
        k(   25) = (   0.1666667   0.4811273   0.0000000), wk =   0.0185185
        k(   26) = (   0.1666667   0.4811273   0.1258046), wk =   0.0185185
        k(   27) = (   0.1666667   0.4811273   0.2516091), wk =   0.0185185
        k(   28) = (   0.1666667   0.4811273  -0.3774137), wk =   0.0185185
        k(   29) = (   0.3333333   0.1924509   0.0000000), wk =   0.0185185
        k(   30) = (   0.3333333   0.1924509   0.1258046), wk =   0.0185185
        k(   31) = (   0.3333333   0.1924509   0.2516091), wk =   0.0185185
        k(   32) = (   0.3333333   0.1924509  -0.3774137), wk =   0.0185185
        k(   33) = (   0.3333333   0.3849018   0.0000000), wk =   0.0185185
        k(   34) = (   0.3333333   0.3849018   0.1258046), wk =   0.0185185
        k(   35) = (   0.3333333   0.3849018   0.2516091), wk =   0.0185185
        k(   36) = (   0.3333333   0.3849018  -0.3774137), wk =   0.0185185
        k(   37) = (   0.3333333   0.5773527   0.0000000), wk =   0.0092593
        k(   38) = (   0.3333333   0.5773527   0.1258046), wk =   0.0185185
        k(   39) = (   0.3333333   0.5773527   0.2516091), wk =   0.0185185
        k(   40) = (   0.3333333   0.5773527  -0.3774137), wk =   0.0092593
        k(   41) = (   0.3333333   0.0000000   0.0000000), wk =   0.0092593
        k(   42) = (   0.3333333   0.0000000   0.1258046), wk =   0.0185185
        k(   43) = (   0.3333333   0.0000000   0.2516091), wk =   0.0185185
        k(   44) = (   0.3333333   0.0000000  -0.3774137), wk =   0.0092593
        k(   45) = (  -0.5000000  -0.2886764   0.0000000), wk =   0.0092593
        k(   46) = (  -0.5000000  -0.2886764   0.1258046), wk =   0.0185185
        k(   47) = (  -0.5000000  -0.2886764   0.2516091), wk =   0.0185185
        k(   48) = (  -0.5000000  -0.2886764  -0.3774137), wk =   0.0092593
        k(   49) = (  -0.5000000  -0.0962255   0.0000000), wk =   0.0185185
        k(   50) = (  -0.5000000  -0.0962255   0.1258046), wk =   0.0185185
        k(   51) = (  -0.5000000  -0.0962255   0.2516091), wk =   0.0185185
        k(   52) = (  -0.5000000  -0.0962255  -0.3774137), wk =   0.0185185
        k(   53) = (   0.0000000   0.1924509  -0.1258046), wk =   0.0092593
        k(   54) = (   0.0000000   0.1924509  -0.2516091), wk =   0.0092593
        k(   55) = (   0.0000000   0.3849018  -0.1258046), wk =   0.0092593
        k(   56) = (   0.0000000   0.3849018  -0.2516091), wk =   0.0092593
        k(   57) = (  -0.1666667   0.0962255  -0.1258046), wk =   0.0185185
        k(   58) = (  -0.1666667   0.0962255  -0.2516091), wk =   0.0185185
        k(   59) = (  -0.1666667   0.2886764  -0.1258046), wk =   0.0185185
        k(   60) = (  -0.1666667   0.2886764  -0.2516091), wk =   0.0185185
        k(   61) = (  -0.1666667   0.4811273  -0.1258046), wk =   0.0185185
        k(   62) = (  -0.1666667   0.4811273  -0.2516091), wk =   0.0185185
        k(   63) = (  -0.3333333   0.1924509  -0.1258046), wk =   0.0185185
        k(   64) = (  -0.3333333   0.1924509  -0.2516091), wk =   0.0185185
        k(   65) = (  -0.3333333   0.3849018  -0.1258046), wk =   0.0185185
        k(   66) = (  -0.3333333   0.3849018  -0.2516091), wk =   0.0185185
        k(   67) = (   0.5000000  -0.0962255  -0.1258046), wk =   0.0185185
        k(   68) = (   0.5000000  -0.0962255  -0.2516091), wk =   0.0185185

                       cryst. coord.
        k(    1) = (   0.0000000   0.0000000   0.0000000), wk =   0.0046296
        k(    2) = (   0.0000000   0.0000000   0.1666667), wk =   0.0092593
        k(    3) = (   0.0000000   0.0000000   0.3333333), wk =   0.0092593
        k(    4) = (   0.0000000   0.0000000  -0.5000000), wk =   0.0046296
        k(    5) = (   0.0000000   0.1666667   0.0000000), wk =   0.0092593
        k(    6) = (   0.0000000   0.1666667   0.1666667), wk =   0.0092593
        k(    7) = (   0.0000000   0.1666667   0.3333333), wk =   0.0092593
        k(    8) = (   0.0000000   0.1666667  -0.5000000), wk =   0.0092593
        k(    9) = (   0.0000000   0.3333333   0.0000000), wk =   0.0092593
        k(   10) = (   0.0000000   0.3333333   0.1666667), wk =   0.0092593
        k(   11) = (   0.0000000   0.3333333   0.3333333), wk =   0.0092593
        k(   12) = (   0.0000000   0.3333333  -0.5000000), wk =   0.0092593
        k(   13) = (   0.0000000  -0.5000000   0.0000000), wk =   0.0046296
        k(   14) = (   0.0000000  -0.5000000   0.1666667), wk =   0.0092593
        k(   15) = (   0.0000000  -0.5000000   0.3333333), wk =   0.0092593
        k(   16) = (   0.0000000  -0.5000000  -0.5000000), wk =   0.0046296
        k(   17) = (   0.1666667   0.0000000   0.0000000), wk =   0.0185185
        k(   18) = (   0.1666667   0.0000000   0.1666667), wk =   0.0185185
        k(   19) = (   0.1666667   0.0000000   0.3333333), wk =   0.0185185
        k(   20) = (   0.1666667   0.0000000  -0.5000000), wk =   0.0185185
        k(   21) = (   0.1666667   0.1666667   0.0000000), wk =   0.0185185
        k(   22) = (   0.1666667   0.1666667   0.1666667), wk =   0.0185185
        k(   23) = (   0.1666667   0.1666667   0.3333333), wk =   0.0185185
        k(   24) = (   0.1666667   0.1666667  -0.5000000), wk =   0.0185185
        k(   25) = (   0.1666667   0.3333333   0.0000000), wk =   0.0185185
        k(   26) = (   0.1666667   0.3333333   0.1666667), wk =   0.0185185
        k(   27) = (   0.1666667   0.3333333   0.3333333), wk =   0.0185185
        k(   28) = (   0.1666667   0.3333333  -0.5000000), wk =   0.0185185
        k(   29) = (   0.3333333   0.0000000   0.0000000), wk =   0.0185185
        k(   30) = (   0.3333333   0.0000000   0.1666667), wk =   0.0185185
        k(   31) = (   0.3333333   0.0000000   0.3333333), wk =   0.0185185
        k(   32) = (   0.3333333   0.0000000  -0.5000000), wk =   0.0185185
        k(   33) = (   0.3333333   0.1666667   0.0000000), wk =   0.0185185
        k(   34) = (   0.3333333   0.1666667   0.1666667), wk =   0.0185185
        k(   35) = (   0.3333333   0.1666667   0.3333333), wk =   0.0185185
        k(   36) = (   0.3333333   0.1666667  -0.5000000), wk =   0.0185185
        k(   37) = (   0.3333333   0.3333333   0.0000000), wk =   0.0092593
        k(   38) = (   0.3333333   0.3333333   0.1666667), wk =   0.0185185
        k(   39) = (   0.3333333   0.3333333   0.3333333), wk =   0.0185185
        k(   40) = (   0.3333333   0.3333333  -0.5000000), wk =   0.0092593
        k(   41) = (   0.3333333  -0.1666667   0.0000000), wk =   0.0092593
        k(   42) = (   0.3333333  -0.1666667   0.1666667), wk =   0.0185185
        k(   43) = (   0.3333333  -0.1666667   0.3333333), wk =   0.0185185
        k(   44) = (   0.3333333  -0.1666667  -0.5000000), wk =   0.0092593
        k(   45) = (  -0.5000000   0.0000000   0.0000000), wk =   0.0092593
        k(   46) = (  -0.5000000   0.0000000   0.1666667), wk =   0.0185185
        k(   47) = (  -0.5000000   0.0000000   0.3333333), wk =   0.0185185
        k(   48) = (  -0.5000000   0.0000000  -0.5000000), wk =   0.0092593
        k(   49) = (  -0.5000000   0.1666667   0.0000000), wk =   0.0185185
        k(   50) = (  -0.5000000   0.1666667   0.1666667), wk =   0.0185185
        k(   51) = (  -0.5000000   0.1666667   0.3333333), wk =   0.0185185
        k(   52) = (  -0.5000000   0.1666667  -0.5000000), wk =   0.0185185
        k(   53) = (   0.0000000   0.1666667  -0.1666667), wk =   0.0092593
        k(   54) = (   0.0000000   0.1666667  -0.3333333), wk =   0.0092593
        k(   55) = (   0.0000000   0.3333333  -0.1666667), wk =   0.0092593
        k(   56) = (   0.0000000   0.3333333  -0.3333333), wk =   0.0092593
        k(   57) = (  -0.1666667   0.1666667  -0.1666667), wk =   0.0185185
        k(   58) = (  -0.1666667   0.1666667  -0.3333333), wk =   0.0185185
        k(   59) = (  -0.1666667   0.3333333  -0.1666667), wk =   0.0185185
        k(   60) = (  -0.1666667   0.3333333  -0.3333333), wk =   0.0185185
        k(   61) = (  -0.1666667   0.5000000  -0.1666667), wk =   0.0185185
        k(   62) = (  -0.1666667   0.5000000  -0.3333333), wk =   0.0185185
        k(   63) = (  -0.3333333   0.3333333  -0.1666667), wk =   0.0185185
        k(   64) = (  -0.3333333   0.3333333  -0.3333333), wk =   0.0185185
        k(   65) = (  -0.3333333   0.5000000  -0.1666667), wk =   0.0185185
        k(   66) = (  -0.3333333   0.5000000  -0.3333333), wk =   0.0185185
        k(   67) = (   0.5000000  -0.3333333  -0.1666667), wk =   0.0185185
        k(   68) = (   0.5000000  -0.3333333  -0.3333333), wk =   0.0185185

     Dense  grid:    60439 G-vectors     FFT dimensions: (  48,  48,  72)

     Smooth grid:    32805 G-vectors     FFT dimensions: (  40,  40,  54)

     Dynamical RAM for                 wfc:       1.63 MB

     Dynamical RAM for     wfc (w. buffer):     112.56 MB

     Dynamical RAM for           str. fact:       0.46 MB

     Dynamical RAM for           local pot:       0.00 MB

     Dynamical RAM for          nlocal pot:       3.20 MB

     Dynamical RAM for                qrad:       3.64 MB

     Dynamical RAM for          rho,v,vnew:      13.13 MB

     Dynamical RAM for               rhoin:       4.38 MB

     Dynamical RAM for            rho*nmix:      29.51 MB

     Dynamical RAM for           G-vectors:       1.85 MB

     Dynamical RAM for          h,s,v(r/c):       0.12 MB

     Dynamical RAM for          <psi|beta>:       0.08 MB

     Dynamical RAM for                 psi:       3.26 MB

     Dynamical RAM for                hpsi:       3.26 MB

     Dynamical RAM for                spsi:       3.26 MB

     Dynamical RAM for      wfcinit/wfcrot:       2.46 MB

     Dynamical RAM for           addusdens:     282.69 MB

     Dynamical RAM for         addusstress:     289.60 MB

     Estimated static dynamical RAM per process >     145.21 MB

     Estimated max dynamical RAM per process >     464.33 MB

     Estimated total dynamical RAM >     928.65 MB

     Initial potential from superposition of free atoms

     starting charge      17.9993, renormalised to      18.0000
     Starting wfcs are   24 randomized atomic wfcs +    2 random wfcs

     total cpu time spent up to now is       14.5 secs

     per-process dynamical memory:   164.6 Mb

     Self-consistent Calculation

     iteration #  1     ecut=    50.00 Ry     beta= 0.40
     Davidson diagonalization with overlap

---- Real-time Memory Report at c_bands before calling an iterative solver
           354 MiB given to the printing process from OS
           162 MiB allocation reported by mallinfo(arena+hblkhd)
           700 MiB available memory on the node where the printing process lives
------------------
     c_bands:  2 eigenvalues not converged
     c_bands:  2 eigenvalues not converged
     c_bands:  1 eigenvalues not converged
     c_bands:  2 eigenvalues not converged
     c_bands:  2 eigenvalues not converged
     c_bands:  2 eigenvalues not converged
     c_bands:  1 eigenvalues not converged
     c_bands:  2 eigenvalues not converged
     c_bands:  2 eigenvalues not converged
     c_bands:  2 eigenvalues not converged
     c_bands:  2 eigenvalues not converged
     c_bands:  2 eigenvalues not converged
     c_bands:  2 eigenvalues not converged
     c_bands:  2 eigenvalues not converged
     c_bands:  2 eigenvalues not converged
     c_bands:  2 eigenvalues not converged
     c_bands:  2 eigenvalues not converged
     c_bands:  2 eigenvalues not converged
     c_bands:  2 eigenvalues not converged
     c_bands:  2 eigenvalues not converged
     c_bands:  2 eigenvalues not converged
     c_bands:  2 eigenvalues not converged
     c_bands:  2 eigenvalues not converged
     c_bands:  2 eigenvalues not converged
     c_bands:  1 eigenvalues not converged
     c_bands:  2 eigenvalues not converged
     c_bands:  2 eigenvalues not converged
     c_bands:  2 eigenvalues not converged
     ethr =  1.00E-05,  avg # of iterations = 18.8

     total cpu time spent up to now is       71.6 secs

     total energy              =     -85.64355414 Ry
     estimated scf accuracy    <       0.01530627 Ry

     iteration #  2     ecut=    50.00 Ry     beta= 0.40
     Davidson diagonalization with overlap

---- Real-time Memory Report at c_bands before calling an iterative solver
           491 MiB given to the printing process from OS
           182 MiB allocation reported by mallinfo(arena+hblkhd)
           893 MiB available memory on the node where the printing process lives
------------------
     ethr =  8.50E-05,  avg # of iterations =  1.1

     total cpu time spent up to now is       80.7 secs

     total energy              =     -85.64335237 Ry
     estimated scf accuracy    <       0.00451043 Ry

     iteration #  3     ecut=    50.00 Ry     beta= 0.40
     Davidson diagonalization with overlap

---- Real-time Memory Report at c_bands before calling an iterative solver
           493 MiB given to the printing process from OS
           184 MiB allocation reported by mallinfo(arena+hblkhd)
           878 MiB available memory on the node where the printing process lives
------------------
     ethr =  2.51E-05,  avg # of iterations =  1.0

     total cpu time spent up to now is       90.2 secs

     total energy              =     -85.64359323 Ry
     estimated scf accuracy    <       0.00018507 Ry

     iteration #  4     ecut=    50.00 Ry     beta= 0.40
     Davidson diagonalization with overlap

---- Real-time Memory Report at c_bands before calling an iterative solver
           495 MiB given to the printing process from OS
           186 MiB allocation reported by mallinfo(arena+hblkhd)
           880 MiB available memory on the node where the printing process lives
------------------
     ethr =  1.03E-06,  avg # of iterations =  5.4

     total cpu time spent up to now is      103.6 secs

     total energy              =     -85.64365849 Ry
     estimated scf accuracy    <       0.00000670 Ry

     iteration #  5     ecut=    50.00 Ry     beta= 0.40
     Davidson diagonalization with overlap

---- Real-time Memory Report at c_bands before calling an iterative solver
           497 MiB given to the printing process from OS
           188 MiB allocation reported by mallinfo(arena+hblkhd)
           878 MiB available memory on the node where the printing process lives
------------------
     ethr =  3.72E-08,  avg # of iterations =  4.1

     total cpu time spent up to now is      116.5 secs

     total energy              =     -85.64366218 Ry
     estimated scf accuracy    <       0.00000203 Ry

     iteration #  6     ecut=    50.00 Ry     beta= 0.40
     Davidson diagonalization with overlap

---- Real-time Memory Report at c_bands before calling an iterative solver
           499 MiB given to the printing process from OS
           190 MiB allocation reported by mallinfo(arena+hblkhd)
           867 MiB available memory on the node where the printing process lives
------------------
     ethr =  1.13E-08,  avg # of iterations =  2.1

     total cpu time spent up to now is      127.3 secs

     total energy              =     -85.64366245 Ry
     estimated scf accuracy    <       0.00000012 Ry

     iteration #  7     ecut=    50.00 Ry     beta= 0.40
     Davidson diagonalization with overlap

---- Real-time Memory Report at c_bands before calling an iterative solver
           501 MiB given to the printing process from OS
           192 MiB allocation reported by mallinfo(arena+hblkhd)
           870 MiB available memory on the node where the printing process lives
------------------
     ethr =  6.63E-10,  avg # of iterations =  2.5

     total cpu time spent up to now is      138.0 secs

     total energy              =     -85.64366248 Ry
     estimated scf accuracy    <       0.00000002 Ry

     iteration #  8     ecut=    50.00 Ry     beta= 0.40
     Davidson diagonalization with overlap

---- Real-time Memory Report at c_bands before calling an iterative solver
           503 MiB given to the printing process from OS
           194 MiB allocation reported by mallinfo(arena+hblkhd)
           855 MiB available memory on the node where the printing process lives
------------------
     ethr =  1.02E-10,  avg # of iterations =  3.3

     total cpu time spent up to now is      149.5 secs

     End of self-consistent calculation

          k = 0.0000 0.0000 0.0000 (  4117 PWs)   bands (ev):

    -7.6685  -7.6685  -4.3281  -4.3281  -4.3268  -4.3268   2.7185   2.7185
     2.9235   2.9235   3.3568   3.3568   4.3120   4.3120   4.3569   4.3569
     5.2234   5.2234   6.6509   6.6509   7.2706   7.2706   7.7840   7.7840
    10.9663  10.9670

     occupation numbers 
     1.0000   1.0000   1.0000   1.0000   1.0000   1.0000   1.0000   1.0000
     1.0000   1.0000   1.0000   1.0000   1.0000   1.0000   1.0000   1.0000
     1.0000   1.0000   0.0000   0.0000   0.0000   0.0000   0.0000   0.0000
     0.0000   0.0000

          k = 0.0000 0.0000 0.1258 (  4159 PWs)   bands (ev):

    -7.5677  -7.5665  -5.2682  -5.2652  -3.3603  -3.3588   2.5095   2.5144
     2.8924   3.0769   3.1615   3.6082   4.2745   4.3689   4.4497   4.5057
     5.1385   5.2446   6.5254   6.5552   7.0373   7.1218   7.5007   7.5175
    10.6446  10.6824

     occupation numbers 
     1.0000   1.0000   1.0000   1.0000   1.0000   1.0000   1.0000   1.0000
     1.0000   1.0000   1.0000   1.0000   1.0000   1.0000   1.0000   1.0000
     1.0000   1.0000   0.0001   0.0000   0.0000   0.0000   0.0000   0.0000
     0.0000   0.0000

          k = 0.0000 0.0000 0.2516 (  4105 PWs)   bands (ev):

    -7.2662  -7.2639  -6.0971  -6.0937  -2.5342  -2.5307   2.0483   2.0903
     3.0479   3.1445   3.2156   3.6299   4.3954   4.5294   4.5503   4.7811
     4.9790   5.1948   6.3928   6.4147   6.6685   6.8411   6.9594   7.0372
    10.2062  10.2243

     occupation numbers 
     1.0000   1.0000   1.0000   1.0000   1.0000   1.0000   1.0000   1.0000
     1.0000   1.0000   1.0000   1.0000   1.0000   1.0000   1.0000   1.0000
     1.0000   1.0000   0.0066   0.0034   0.0000   0.0000   0.0000   0.0000
     0.0000   0.0000

          k = 0.0000 0.0000-0.3774 (  4130 PWs)   bands (ev):

    -6.7713  -6.7713  -6.7682  -6.7682  -2.1741  -2.1741   1.8293   1.8293
     3.1456   3.1456   3.4316   3.4316   4.5375   4.5375   4.7613   4.7613
     5.0397   5.0397   6.4372   6.4372   6.5307   6.5307   6.7617   6.7617
    10.0264  10.0264

     occupation numbers 
     1.0000   1.0000   1.0000   1.0000   1.0000   1.0000   1.0000   1.0000
     1.0000   1.0000   1.0000   1.0000   1.0000   1.0000   1.0000   1.0000
     1.0000   1.0000   0.0017   0.0017   0.0000   0.0000   0.0000   0.0000
     0.0000   0.0000

          k = 0.0000 0.1925 0.0000 (  4123 PWs)   bands (ev):

    -7.4892  -7.4889  -4.3961  -4.3904  -4.2779  -4.2737   1.7342   1.8310
     2.2997   2.4500   2.7875   3.0249   4.5366   4.7082   4.9188   5.0061
     5.1934   5.3066   6.7489   6.8314   6.9882   7.0747   7.5393   7.6410
    10.3941  10.4348

     occupation numbers 
     1.0000   1.0000   1.0000   1.0000   1.0000   1.0000   1.0000   1.0000
     1.0000   1.0000   1.0000   1.0000   1.0000   1.0000   1.0000   1.0000
     1.0000   1.0000   0.0000   0.0000   0.0000   0.0000   0.0000   0.0000
     0.0000   0.0000

          k = 0.0000 0.1925 0.1258 (  4135 PWs)   bands (ev):

    -7.3898  -7.3883  -5.2105  -5.2072  -3.4630  -3.4602   1.8288   1.9035
     2.0020   2.1349   2.8844   3.0740   4.6416   4.7739   4.9507   5.1476
     5.3450   5.4385   6.6008   6.6297   6.7724   6.9111   7.4110   7.4710
     9.9872   9.9961

     occupation numbers 
     1.0000   1.0000   1.0000   1.0000   1.0000   1.0000   1.0000   1.0000
     1.0000   1.0000   1.0000   1.0000   1.0000   1.0000   1.0000   1.0000
     1.0000   1.0000   0.0000   0.0000   0.0000   0.0000   0.0000   0.0000
     0.0000   0.0000

          k = 0.0000 0.1925 0.2516 (  4131 PWs)   bands (ev):

    -7.0957  -7.0930  -5.9842  -5.9802  -2.8023  -2.7978   1.6942   1.7893
     2.1699   2.3486   2.9878   3.1692   4.4459   4.5163   4.6601   4.7596
     4.9268   5.0246   6.6422   6.7537   6.9646   7.1197   7.6847   7.6977
    10.0151  10.0416

     occupation numbers 
     1.0000   1.0000   1.0000   1.0000   1.0000   1.0000   1.0000   1.0000
     1.0000   1.0000   1.0000   1.0000   1.0000   1.0000   1.0000   1.0000
     1.0000   1.0000   0.0000   0.0000   0.0000   0.0000   0.0000   0.0000
     0.0000   0.0000

          k = 0.0000 0.1925-0.3774 (  4106 PWs)   bands (ev):

    -6.6388  -6.6371  -6.6002  -6.5988  -2.5610  -2.5603   1.6646   1.7472
     2.6279   2.8733   2.9433   3.1126   3.9228   4.1505   4.2498   4.4017
     4.6039   4.8016   6.7732   6.9194   7.3349   7.4739   7.8813   7.8865
    10.4416  10.4632

     occupation numbers 
     1.0000   1.0000   1.0000   1.0000   1.0000   1.0000   1.0000   1.0000
     1.0000   1.0000   1.0000   1.0000   1.0000   1.0000   1.0000   1.0000
     1.0000   1.0000   0.0000   0.0000   0.0000   0.0000   0.0000   0.0000
     0.0000   0.0000

          k = 0.0000 0.3849 0.0000 (  4120 PWs)   bands (ev):

    -7.0249  -7.0242  -4.7087  -4.7033  -4.1618  -4.1578   1.0425   1.0990
     1.6194   1.7840   2.3121   2.5289   3.5184   3.5939   4.8260   4.9764
     5.0615   5.2082   6.8669   6.9714   7.0957   7.1348   8.7791   8.7954
     9.3785   9.4079

     occupation numbers 
     1.0000   1.0000   1.0000   1.0000   1.0000   1.0000   1.0000   1.0000
     1.0000   1.0000   1.0000   1.0000   1.0000   1.0000   1.0000   1.0000
     1.0000   1.0000   0.0000   0.0000   0.0000   0.0000   0.0000   0.0000
     0.0000   0.0000

          k = 0.0000 0.3849 0.1258 (  4112 PWs)   bands (ev):

    -6.9281  -6.9255  -5.1857  -5.1813  -3.7277  -3.7212   0.8856   0.9140
     1.3788   1.4796   2.4295   2.5691   4.2306   4.4865   4.7041   4.9828
     5.0000   5.2043   6.7982   6.8551   7.2790   7.3856   7.9037   7.9304
     9.3092   9.3704

     occupation numbers 
     1.0000   1.0000   1.0000   1.0000   1.0000   1.0000   1.0000   1.0000
     1.0000   1.0000   1.0000   1.0000   1.0000   1.0000   1.0000   1.0000
     1.0000   1.0000   0.0000   0.0000   0.0000   0.0000   0.0000   0.0000
     0.0000   0.0000

          k = 0.0000 0.3849 0.2516 (  4116 PWs)   bands (ev):

    -6.6588  -6.6539  -5.7569  -5.7505  -3.4238  -3.4174   0.7188   0.7632
     1.6184   1.7376   2.5763   2.6911   3.9547   4.1173   4.3378   4.4413
     5.7776   5.8305   6.6725   6.7452   7.3102   7.4449   7.7878   8.1309
     9.7917   9.9282

     occupation numbers 
     1.0000   1.0000   1.0000   1.0000   1.0000   1.0000   1.0000   1.0000
     1.0000   1.0000   1.0000   1.0000   1.0000   1.0000   1.0000   1.0000
     1.0000   0.9996   0.0000   0.0000   0.0000   0.0000   0.0000   0.0000
     0.0000   0.0000

          k = 0.0000 0.3849-0.3774 (  4112 PWs)   bands (ev):

    -6.3412  -6.3393  -6.1562  -6.1541  -3.3914  -3.3899   0.8095   0.8511
     2.1215   2.2463   2.4755   2.5895   3.7030   3.7677   4.0003   4.0773
     4.9669   5.0616   7.2277   7.4317   7.8967   8.0062   8.2760   8.4913
    10.4665  10.6155

     occupation numbers 
     1.0000   1.0000   1.0000   1.0000   1.0000   1.0000   1.0000   1.0000
     1.0000   1.0000   1.0000   1.0000   1.0000   1.0000   1.0000   1.0000
     1.0000   1.0000   0.0000   0.0000   0.0000   0.0000   0.0000   0.0000
     0.0000   0.0000

          k = 0.0000-0.5774 0.0000 (  4094 PWs)   bands (ev):

    -6.6766  -6.6766  -5.0229  -5.0229  -4.0952  -4.0952   1.0219   1.0219
     1.5147   1.5147   2.3480   2.3480   2.5580   2.5580   4.8177   4.8177
     5.1040   5.1040   6.9198   6.9198   7.0351   7.0351   9.0026   9.0026
     9.7369   9.7369

     occupation numbers 
     1.0000   1.0000   1.0000   1.0000   1.0000   1.0000   1.0000   1.0000
     1.0000   1.0000   1.0000   1.0000   1.0000   1.0000   1.0000   1.0000
     1.0000   1.0000   0.0000   0.0000   0.0000   0.0000   0.0000   0.0000
     0.0000   0.0000

          k = 0.0000-0.5774 0.1258 (  4090 PWs)   bands (ev):

    -6.6017  -6.5979  -5.1855  -5.1812  -4.0433  -4.0351   0.9762   1.0160
     1.1849   1.2967   2.2692   2.4277   3.1944   3.3753   4.4539   4.6241
     4.7733   4.8571   6.9110   6.9559   7.4923   7.7175   9.1855   9.2065
     9.3604   9.4728

     occupation numbers 
     1.0000   1.0000   1.0000   1.0000   1.0000   1.0000   1.0000   1.0000
     1.0000   1.0000   1.0000   1.0000   1.0000   1.0000   1.0000   1.0000
     1.0000   1.0000   0.0000   0.0000   0.0000   0.0000   0.0000   0.0000
     0.0000   0.0000

          k = 0.0000-0.5774 0.2516 (  4098 PWs)   bands (ev):

    -6.3880  -6.3814  -5.5441  -5.5363  -3.9484  -3.9412   0.4590   0.4896
     1.6248   1.7339   2.3816   2.4955   3.6127   3.8897   4.0693   4.2652
     4.7738   4.9649   7.2690   7.3670   7.8936   7.9673   8.2700   8.6020
    10.0912  10.3090

     occupation numbers 
     1.0000   1.0000   1.0000   1.0000   1.0000   1.0000   1.0000   1.0000
     1.0000   1.0000   1.0000   1.0000   1.0000   1.0000   1.0000   1.0000
     1.0000   1.0000   0.0000   0.0000   0.0000   0.0000   0.0000   0.0000
     0.0000   0.0000

          k = 0.0000-0.5774-0.3774 (  4092 PWs)   bands (ev):

    -6.1689  -6.1689  -5.8188  -5.8188  -3.9019  -3.9019   0.2728   0.2728
     2.1472   2.1472   2.2755   2.2755   3.5649   3.5649   3.9306   3.9306
     5.8029   5.8029   6.7703   6.7703   7.8093   7.8093   8.6532   8.6532
    10.5690  10.5690

     occupation numbers 
     1.0000   1.0000   1.0000   1.0000   1.0000   1.0000   1.0000   1.0000
     1.0000   1.0000   1.0000   1.0000   1.0000   1.0000   1.0000   1.0000
     0.9999   0.9999   0.0000   0.0000   0.0000   0.0000   0.0000   0.0000
     0.0000   0.0000

          k = 0.1667 0.0962 0.0000 (  4123 PWs)   bands (ev):

    -7.4892  -7.4889  -4.3961  -4.3903  -4.2779  -4.2737   1.7342   1.8310
     2.2997   2.4500   2.7875   3.0249   4.5366   4.7083   4.9188   5.0061
     5.1934   5.3066   6.7489   6.8314   6.9882   7.0747   7.5393   7.6410
    10.3941  10.4349

     occupation numbers 
     1.0000   1.0000   1.0000   1.0000   1.0000   1.0000   1.0000   1.0000
     1.0000   1.0000   1.0000   1.0000   1.0000   1.0000   1.0000   1.0000
     1.0000   1.0000   0.0000   0.0000   0.0000   0.0000   0.0000   0.0000
     0.0000   0.0000

          k = 0.1667 0.0962 0.1258 (  4133 PWs)   bands (ev):

    -7.3924  -7.3909  -5.1827  -5.1794  -3.5204  -3.5176   1.8042   1.8932
     2.5159   2.7087   2.7943   3.1524   4.2446   4.2978   4.3891   4.5682
     4.8117   5.0004   6.9953   7.0959   7.3822   7.5071   7.7824   7.8821
    10.6805  10.7206

     occupation numbers 
     1.0000   1.0000   1.0000   1.0000   1.0000   1.0000   1.0000   1.0000
     1.0000   1.0000   1.0000   1.0000   1.0000   1.0000   1.0000   1.0000
     1.0000   1.0000   0.0000   0.0000   0.0000   0.0000   0.0000   0.0000
     0.0000   0.0000

          k = 0.1667 0.0962 0.2516 (  4131 PWs)   bands (ev):

    -7.1016  -7.0989  -5.9669  -5.9630  -2.8533  -2.8488   1.8215   1.8912
     2.6366   2.7992   3.0536   3.2980   3.7343   3.9572   4.1612   4.2500
     4.6343   4.7847   7.0157   7.0588   7.6398   7.7309   7.7962   7.8610
    10.6232  10.6415

     occupation numbers 
     1.0000   1.0000   1.0000   1.0000   1.0000   1.0000   1.0000   1.0000
     1.0000   1.0000   1.0000   1.0000   1.0000   1.0000   1.0000   1.0000
     1.0000   1.0000   0.0000   0.0000   0.0000   0.0000   0.0000   0.0000
     0.0000   0.0000

          k = 0.1667 0.0962-0.3774 (  4106 PWs)   bands (ev):

    -6.6389  -6.6371  -6.6002  -6.5987  -2.5610  -2.5603   1.6646   1.7472
     2.6279   2.8733   2.9433   3.1126   3.9228   4.1505   4.2498   4.4017
     4.6039   4.8016   6.7732   6.9194   7.3349   7.4739   7.8813   7.8864
    10.4419  10.4634

     occupation numbers 
     1.0000   1.0000   1.0000   1.0000   1.0000   1.0000   1.0000   1.0000
     1.0000   1.0000   1.0000   1.0000   1.0000   1.0000   1.0000   1.0000
     1.0000   1.0000   0.0000   0.0000   0.0000   0.0000   0.0000   0.0000
     0.0000   0.0000

          k = 0.1667 0.2887 0.0000 (  4117 PWs)   bands (ev):

    -7.1630  -7.1624  -4.5324  -4.5221  -4.2679  -4.2593   1.2310   1.3464
     1.4953   1.6050   2.8512   3.0155   4.0273   4.1834   4.3190   4.3881
     4.7887   4.8370   7.5015   7.5391   7.5898   7.6258   7.9436   7.9602
    10.2533  10.2594

     occupation numbers 
     1.0000   1.0000   1.0000   1.0000   1.0000   1.0000   1.0000   1.0000
     1.0000   1.0000   1.0000   1.0000   1.0000   1.0000   1.0000   1.0000
     1.0000   1.0000   0.0000   0.0000   0.0000   0.0000   0.0000   0.0000
     0.0000   0.0000

          k = 0.1667 0.2887 0.1258 (  4123 PWs)   bands (ev):

    -7.0712  -7.0691  -5.1078  -5.1037  -3.7588  -3.7534   1.2363   1.3000
     1.6641   1.7241   2.7593   2.8970   3.5966   3.6901   4.3610   4.4788
     5.4150   5.4810   6.8777   6.9464   7.6330   7.6769   8.2476   8.2803
    10.2280  10.2586

     occupation numbers 
     1.0000   1.0000   1.0000   1.0000   1.0000   1.0000   1.0000   1.0000
     1.0000   1.0000   1.0000   1.0000   1.0000   1.0000   1.0000   1.0000
     1.0000   1.0000   0.0000   0.0000   0.0000   0.0000   0.0000   0.0000
     0.0000   0.0000

          k = 0.1667 0.2887 0.2516 (  4105 PWs)   bands (ev):

    -6.7993  -6.7955  -5.7758  -5.7706  -3.3174  -3.3114   1.2464   1.3395
     1.7553   1.8905   2.5974   2.7122   3.2965   3.4773   4.8150   4.9408
     5.1691   5.2849   6.8114   6.8645   7.6396   7.6517   8.4344   8.4889
    10.4154  10.4362

     occupation numbers 
     1.0000   1.0000   1.0000   1.0000   1.0000   1.0000   1.0000   1.0000
     1.0000   1.0000   1.0000   1.0000   1.0000   1.0000   1.0000   1.0000
     1.0000   1.0000   0.0000   0.0000   0.0000   0.0000   0.0000   0.0000
     0.0000   0.0000

          k = 0.1667 0.2887-0.3774 (  4112 PWs)   bands (ev):

    -6.4046  -6.4016  -6.3077  -6.3046  -3.1507  -3.1492   1.2253   1.3226
     2.0456   2.0570   2.1717   2.2750   3.8715   4.0324   4.4359   4.4699
     5.1229   5.2083   6.7192   6.7985   8.1012   8.1178   8.3095   8.3311
    10.6174  10.6580

     occupation numbers 
     1.0000   1.0000   1.0000   1.0000   1.0000   1.0000   1.0000   1.0000
     1.0000   1.0000   1.0000   1.0000   1.0000   1.0000   1.0000   1.0000
     1.0000   1.0000   0.0000   0.0000   0.0000   0.0000   0.0000   0.0000
     0.0000   0.0000

          k = 0.1667 0.4811 0.0000 (  4122 PWs)   bands (ev):

    -6.7026  -6.7018  -4.8406  -4.8345  -4.2871  -4.2816   1.0911   1.1641
     1.3613   1.4707   2.4338   2.6315   2.9391   3.0603   3.9665   4.0554
     4.2111   4.2518   7.7414   7.7785   8.0974   8.1109   9.2302   9.2403
     9.8587   9.8763

     occupation numbers 
     1.0000   1.0000   1.0000   1.0000   1.0000   1.0000   1.0000   1.0000
     1.0000   1.0000   1.0000   1.0000   1.0000   1.0000   1.0000   1.0000
     1.0000   1.0000   0.0000   0.0000   0.0000   0.0000   0.0000   0.0000
     0.0000   0.0000

          k = 0.1667 0.4811 0.1258 (  4104 PWs)   bands (ev):

    -6.6185  -6.6147  -5.1423  -5.1371  -4.0587  -4.0499   0.8207   0.8537
     1.3244   1.4275   2.3534   2.4851   3.1657   3.3336   4.0431   4.1765
     4.8590   4.9813   7.2975   7.3607   8.3281   8.3595   8.4828   8.5503
    10.0048  10.0599

     occupation numbers 
     1.0000   1.0000   1.0000   1.0000   1.0000   1.0000   1.0000   1.0000
     1.0000   1.0000   1.0000   1.0000   1.0000   1.0000   1.0000   1.0000
     1.0000   1.0000   0.0000   0.0000   0.0000   0.0000   0.0000   0.0000
     0.0000   0.0000

          k = 0.1667 0.4811 0.2516 (  4105 PWs)   bands (ev):

    -6.3837  -6.3768  -5.5854  -5.5771  -3.8598  -3.8520   0.5537   0.5966
     1.2990   1.3746   2.0882   2.1616   3.4172   3.5441   4.9724   5.1788
     5.5449   5.7984   6.6803   6.7406   7.4380   7.5083   8.5049   8.6180
    10.3289  10.4076

     occupation numbers 
     1.0000   1.0000   1.0000   1.0000   1.0000   1.0000   1.0000   1.0000
     1.0000   1.0000   1.0000   1.0000   1.0000   1.0000   1.0000   1.0000
     1.0000   0.9999   0.0000   0.0000   0.0000   0.0000   0.0000   0.0000
     0.0000   0.0000

          k = 0.1667 0.4811-0.3774 (  4100 PWs)   bands (ev):

    -6.1206  -6.1183  -5.9068  -5.9038  -3.8147  -3.8130   0.5400   0.5676
     1.4772   1.5058   1.6203   1.7022   4.2599   4.3627   4.7491   4.7883
     5.5675   5.6396   6.8811   6.9849   7.5587   7.6232   8.1834   8.2319
    10.8087  10.8444

     occupation numbers 
     1.0000   1.0000   1.0000   1.0000   1.0000   1.0000   1.0000   1.0000
     1.0000   1.0000   1.0000   1.0000   1.0000   1.0000   1.0000   1.0000
     1.0000   1.0000   0.0000   0.0000   0.0000   0.0000   0.0000   0.0000
     0.0000   0.0000

          k = 0.3333 0.1925 0.0000 (  4120 PWs)   bands (ev):

    -7.0249  -7.0242  -4.7087  -4.7033  -4.1618  -4.1578   1.0425   1.0990
     1.6194   1.7841   2.3121   2.5289   3.5184   3.5938   4.8260   4.9765
     5.0615   5.2083   6.8669   6.9714   7.0957   7.1348   8.7791   8.7954
     9.3785   9.4079

     occupation numbers 
     1.0000   1.0000   1.0000   1.0000   1.0000   1.0000   1.0000   1.0000
     1.0000   1.0000   1.0000   1.0000   1.0000   1.0000   1.0000   1.0000
     1.0000   1.0000   0.0000   0.0000   0.0000   0.0000   0.0000   0.0000
     0.0000   0.0000

          k = 0.3333 0.1925 0.1258 (  4112 PWs)   bands (ev):

    -6.9455  -6.9431  -5.0248  -5.0209  -3.9817  -3.9755   1.3167   1.4313
     1.8042   1.9256   2.5371   2.7705   2.7980   3.0264   4.3550   4.6089
     4.7965   4.9622   6.9912   7.0945   7.6796   7.9201   9.1810   9.1941
     9.9690  10.0832

     occupation numbers 
     1.0000   1.0000   1.0000   1.0000   1.0000   1.0000   1.0000   1.0000
     1.0000   1.0000   1.0000   1.0000   1.0000   1.0000   1.0000   1.0000
     1.0000   1.0000   0.0000   0.0000   0.0000   0.0000   0.0000   0.0000
     0.0000   0.0000

          k = 0.3333 0.1925 0.2516 (  4116 PWs)   bands (ev):

    -6.6966  -6.6924  -5.6454  -5.6401  -3.6114  -3.6052   1.1892   1.2637
     1.9487   2.1076   2.5453   2.6877   3.3006   3.6610   3.9105   4.0721
     4.4084   4.6310   7.4040   7.4614   8.2271   8.3899   8.8747   8.8888
    10.5994  10.7108

     occupation numbers 
     1.0000   1.0000   1.0000   1.0000   1.0000   1.0000   1.0000   1.0000
     1.0000   1.0000   1.0000   1.0000   1.0000   1.0000   1.0000   1.0000
     1.0000   1.0000   0.0000   0.0000   0.0000   0.0000   0.0000   0.0000
     0.0000   0.0000

          k = 0.3333 0.1925-0.3774 (  4112 PWs)   bands (ev):

    -6.3413  -6.3394  -6.1562  -6.1541  -3.3914  -3.3898   0.8095   0.8511
     2.1215   2.2463   2.4755   2.5895   3.7030   3.7677   4.0003   4.0773
     4.9669   5.0616   7.2277   7.4317   7.8967   8.0062   8.2760   8.4913
    10.4665  10.6155

     occupation numbers 
     1.0000   1.0000   1.0000   1.0000   1.0000   1.0000   1.0000   1.0000
     1.0000   1.0000   1.0000   1.0000   1.0000   1.0000   1.0000   1.0000
     1.0000   1.0000   0.0000   0.0000   0.0000   0.0000   0.0000   0.0000
     0.0000   0.0000

          k = 0.3333 0.3849 0.0000 (  4122 PWs)   bands (ev):

    -6.7026  -6.7018  -4.8406  -4.8345  -4.2871  -4.2816   1.0911   1.1641
     1.3613   1.4707   2.4338   2.6316   2.9391   3.0603   3.9665   4.0554
     4.2111   4.2518   7.7414   7.7786   8.0974   8.1110   9.2302   9.2403
     9.8588   9.8764

     occupation numbers 
     1.0000   1.0000   1.0000   1.0000   1.0000   1.0000   1.0000   1.0000
     1.0000   1.0000   1.0000   1.0000   1.0000   1.0000   1.0000   1.0000
     1.0000   1.0000   0.0000   0.0000   0.0000   0.0000   0.0000   0.0000
     0.0000   0.0000

          k = 0.3333 0.3849 0.1258 (  4104 PWs)   bands (ev):

    -6.6294  -6.6258  -5.0567  -5.0518  -4.1715  -4.1625   1.0118   1.0632
     1.4138   1.4884   2.3913   2.5567   2.8065   3.1835   3.6384   3.8323
     5.0901   5.1540   7.1551   7.2135   8.2139   8.2672   9.2854   9.3091
    10.1149  10.1711

     occupation numbers 
     1.0000   1.0000   1.0000   1.0000   1.0000   1.0000   1.0000   1.0000
     1.0000   1.0000   1.0000   1.0000   1.0000   1.0000   1.0000   1.0000
     1.0000   1.0000   0.0000   0.0000   0.0000   0.0000   0.0000   0.0000
     0.0000   0.0000

          k = 0.3333 0.3849 0.2516 (  4105 PWs)   bands (ev):

    -6.4070  -6.4008  -5.5189  -5.5115  -3.9417  -3.9339   0.8037   0.8774
     1.1970   1.2638   2.0447   2.1193   3.5325   3.7421   4.4351   4.5757
     5.3427   5.4741   6.9425   6.9709   8.0842   8.1535   8.5836   8.6251
    10.5902  10.6363

     occupation numbers 
     1.0000   1.0000   1.0000   1.0000   1.0000   1.0000   1.0000   1.0000
     1.0000   1.0000   1.0000   1.0000   1.0000   1.0000   1.0000   1.0000
     1.0000   1.0000   0.0000   0.0000   0.0000   0.0000   0.0000   0.0000
     0.0000   0.0000

          k = 0.3333 0.3849-0.3774 (  4100 PWs)   bands (ev):

    -6.1207  -6.1183  -5.9068  -5.9038  -3.8147  -3.8130   0.5400   0.5676
     1.4772   1.5058   1.6203   1.7022   4.2599   4.3628   4.7492   4.7883
     5.5675   5.6396   6.8811   6.9849   7.5586   7.6232   8.1834   8.2319
    10.8089  10.8446

     occupation numbers 
     1.0000   1.0000   1.0000   1.0000   1.0000   1.0000   1.0000   1.0000
     1.0000   1.0000   1.0000   1.0000   1.0000   1.0000   1.0000   1.0000
     1.0000   1.0000   0.0000   0.0000   0.0000   0.0000   0.0000   0.0000
     0.0000   0.0000

          k = 0.3333 0.5774 0.0000 (  4104 PWs)   bands (ev):

    -6.5093  -6.5093  -4.6642  -4.6612  -4.6612  -4.6495   1.2321   1.4202
     1.4202   1.4346   2.7643   2.7643   2.8607   3.0596   3.0596   3.0918
     3.4500   3.4500   8.7335   8.7751   8.9409   8.9409   9.1869   9.1869
    10.8416  10.8416

     occupation numbers 
     1.0000   1.0000   1.0000   1.0000   1.0000   1.0000   1.0000   1.0000
     1.0000   1.0000   1.0000   1.0000   1.0000   1.0000   1.0000   1.0000
     1.0000   1.0000   0.0000   0.0000   0.0000   0.0000   0.0000   0.0000
     0.0000   0.0000

          k = 0.3333 0.5774 0.1258 (  4113 PWs)   bands (ev):

    -6.4365  -6.4319  -5.0560  -5.0523  -4.3306  -4.3204   0.9323   0.9466
     1.3156   1.4823   2.1275   2.2359   2.8560   3.0405   3.8602   3.9022
     4.2431   4.4374   8.2138   8.3702   8.6674   8.7873   8.7989   8.8277
    11.0386  11.0867

     occupation numbers 
     1.0000   1.0000   1.0000   1.0000   1.0000   1.0000   1.0000   1.0000
     1.0000   1.0000   1.0000   1.0000   1.0000   1.0000   1.0000   1.0000
     1.0000   1.0000   0.0000   0.0000   0.0000   0.0000   0.0000   0.0000
     0.0000   0.0000

          k = 0.3333 0.5774 0.2516 (  4131 PWs)   bands (ev):

    -6.2215  -6.2129  -5.4831  -5.4739  -4.0925  -4.0836   0.7438   0.7981
     0.9121   0.9722   1.3919   1.5034   3.9043   4.0365   4.9474   5.1016
     5.2932   5.5854   7.1036   7.2175   7.9021   7.9953   8.1074   8.1349
    11.6723  11.6820

     occupation numbers 
     1.0000   1.0000   1.0000   1.0000   1.0000   1.0000   1.0000   1.0000
     1.0000   1.0000   1.0000   1.0000   1.0000   1.0000   1.0000   1.0000
     1.0000   1.0000   0.0000   0.0000   0.0000   0.0000   0.0000   0.0000
     0.0000   0.0000

          k = 0.3333 0.5774-0.3774 (  4116 PWs)   bands (ev):

    -5.8894  -5.8894  -5.8825  -5.8753  -3.9987  -3.9987   0.7341   0.7341
     0.8833   0.9366   1.0097   1.0097   4.8348   4.8348   5.8007   5.8007
     6.0497   6.1828   6.1828   6.1893   7.3198   7.3851   7.5517   7.5517
    11.8773  11.8773

     occupation numbers 
     1.0000   1.0000   1.0000   1.0000   1.0000   1.0000   1.0000   1.0000
     1.0000   1.0000   1.0000   1.0000   1.0000   1.0000   0.9999   0.9999
     0.8622   0.3847   0.3847   0.3591   0.0000   0.0000   0.0000   0.0000
     0.0000   0.0000

          k = 0.3333 0.0000 0.0000 (  4117 PWs)   bands (ev):

    -7.1630  -7.1624  -4.5324  -4.5221  -4.2680  -4.2594   1.2310   1.3464
     1.4953   1.6050   2.8511   3.0154   4.0274   4.1835   4.3190   4.3881
     4.7887   4.8370   7.5015   7.5392   7.5898   7.6258   7.9436   7.9602
    10.2533  10.2594

     occupation numbers 
     1.0000   1.0000   1.0000   1.0000   1.0000   1.0000   1.0000   1.0000
     1.0000   1.0000   1.0000   1.0000   1.0000   1.0000   1.0000   1.0000
     1.0000   1.0000   0.0000   0.0000   0.0000   0.0000   0.0000   0.0000
     0.0000   0.0000

          k = 0.3333 0.0000 0.1258 (  4123 PWs)   bands (ev):

    -7.0712  -7.0691  -5.1078  -5.1037  -3.7588  -3.7534   1.2364   1.3000
     1.6641   1.7241   2.7593   2.8970   3.5966   3.6902   4.3611   4.4788
     5.4150   5.4810   6.8777   6.9465   7.6330   7.6769   8.2476   8.2803
    10.2280  10.2587

     occupation numbers 
     1.0000   1.0000   1.0000   1.0000   1.0000   1.0000   1.0000   1.0000
     1.0000   1.0000   1.0000   1.0000   1.0000   1.0000   1.0000   1.0000
     1.0000   1.0000   0.0000   0.0000   0.0000   0.0000   0.0000   0.0000
     0.0000   0.0000

          k = 0.3333 0.0000 0.2516 (  4105 PWs)   bands (ev):

    -6.7993  -6.7955  -5.7758  -5.7706  -3.3174  -3.3114   1.2464   1.3395
     1.7553   1.8905   2.5973   2.7122   3.2965   3.4774   4.8151   4.9408
     5.1690   5.2849   6.8115   6.8645   7.6396   7.6517   8.4344   8.4889
    10.4154  10.4362

     occupation numbers 
     1.0000   1.0000   1.0000   1.0000   1.0000   1.0000   1.0000   1.0000
     1.0000   1.0000   1.0000   1.0000   1.0000   1.0000   1.0000   1.0000
     1.0000   1.0000   0.0000   0.0000   0.0000   0.0000   0.0000   0.0000
     0.0000   0.0000

          k = 0.3333 0.0000-0.3774 (  4112 PWs)   bands (ev):

    -6.4047  -6.4016  -6.3077  -6.3046  -3.1507  -3.1492   1.2253   1.3226
     2.0456   2.0570   2.1716   2.2750   3.8715   4.0324   4.4359   4.4699
     5.1229   5.2083   6.7192   6.7985   8.1012   8.1177   8.3095   8.3311
    10.6175  10.6584

     occupation numbers 
     1.0000   1.0000   1.0000   1.0000   1.0000   1.0000   1.0000   1.0000
     1.0000   1.0000   1.0000   1.0000   1.0000   1.0000   1.0000   1.0000
     1.0000   1.0000   0.0000   0.0000   0.0000   0.0000   0.0000   0.0000
     0.0000   0.0000

          k =-0.5000-0.2887 0.0000 (  4094 PWs)   bands (ev):

    -6.6766  -6.6766  -5.0228  -5.0228  -4.0952  -4.0952   1.0219   1.0219
     1.5147   1.5147   2.3480   2.3480   2.5580   2.5580   4.8177   4.8177
     5.1040   5.1040   6.9198   6.9198   7.0351   7.0351   9.0026   9.0026
     9.7369   9.7369

     occupation numbers 
     1.0000   1.0000   1.0000   1.0000   1.0000   1.0000   1.0000   1.0000
     1.0000   1.0000   1.0000   1.0000   1.0000   1.0000   1.0000   1.0000
     1.0000   1.0000   0.0000   0.0000   0.0000   0.0000   0.0000   0.0000
     0.0000   0.0000

          k =-0.5000-0.2887 0.1258 (  4090 PWs)   bands (ev):

    -6.6017  -6.5979  -5.1855  -5.1812  -4.0433  -4.0351   0.9762   1.0160
     1.1849   1.2967   2.2692   2.4278   3.1944   3.3753   4.4540   4.6241
     4.7733   4.8571   6.9110   6.9560   7.4923   7.7176   9.1855   9.2065
     9.3604   9.4729

     occupation numbers 
     1.0000   1.0000   1.0000   1.0000   1.0000   1.0000   1.0000   1.0000
     1.0000   1.0000   1.0000   1.0000   1.0000   1.0000   1.0000   1.0000
     1.0000   1.0000   0.0000   0.0000   0.0000   0.0000   0.0000   0.0000
     0.0000   0.0000

          k =-0.5000-0.2887 0.2516 (  4098 PWs)   bands (ev):

    -6.3881  -6.3814  -5.5441  -5.5363  -3.9484  -3.9412   0.4590   0.4896
     1.6248   1.7339   2.3816   2.4955   3.6128   3.8897   4.0693   4.2652
     4.7738   4.9649   7.2690   7.3670   7.8936   7.9673   8.2700   8.6020
    10.0912  10.3090

     occupation numbers 
     1.0000   1.0000   1.0000   1.0000   1.0000   1.0000   1.0000   1.0000
     1.0000   1.0000   1.0000   1.0000   1.0000   1.0000   1.0000   1.0000
     1.0000   1.0000   0.0000   0.0000   0.0000   0.0000   0.0000   0.0000
     0.0000   0.0000

          k =-0.5000-0.2887-0.3774 (  4092 PWs)   bands (ev):

    -6.1689  -6.1689  -5.8188  -5.8188  -3.9019  -3.9019   0.2728   0.2728
     2.1472   2.1472   2.2755   2.2755   3.5649   3.5649   3.9307   3.9307
     5.8029   5.8029   6.7703   6.7703   7.8093   7.8093   8.6532   8.6532
    10.5690  10.5690

     occupation numbers 
     1.0000   1.0000   1.0000   1.0000   1.0000   1.0000   1.0000   1.0000
     1.0000   1.0000   1.0000   1.0000   1.0000   1.0000   1.0000   1.0000
     0.9999   0.9999   0.0000   0.0000   0.0000   0.0000   0.0000   0.0000
     0.0000   0.0000

          k =-0.5000-0.0962 0.0000 (  4122 PWs)   bands (ev):

    -6.7026  -6.7018  -4.8406  -4.8344  -4.2871  -4.2816   1.0911   1.1641
     1.3613   1.4707   2.4338   2.6315   2.9391   3.0603   3.9665   4.0554
     4.2111   4.2518   7.7414   7.7786   8.0974   8.1110   9.2302   9.2403
     9.8588   9.8764

     occupation numbers 
     1.0000   1.0000   1.0000   1.0000   1.0000   1.0000   1.0000   1.0000
     1.0000   1.0000   1.0000   1.0000   1.0000   1.0000   1.0000   1.0000
     1.0000   1.0000   0.0000   0.0000   0.0000   0.0000   0.0000   0.0000
     0.0000   0.0000

          k =-0.5000-0.0962 0.1258 (  4105 PWs)   bands (ev):

    -6.6185  -6.6148  -5.1423  -5.1371  -4.0587  -4.0499   0.8207   0.8537
     1.3244   1.4275   2.3534   2.4851   3.1657   3.3336   4.0431   4.1765
     4.8590   4.9813   7.2976   7.3607   8.3281   8.3595   8.4828   8.5503
    10.0048  10.0599

     occupation numbers 
     1.0000   1.0000   1.0000   1.0000   1.0000   1.0000   1.0000   1.0000
     1.0000   1.0000   1.0000   1.0000   1.0000   1.0000   1.0000   1.0000
     1.0000   1.0000   0.0000   0.0000   0.0000   0.0000   0.0000   0.0000
     0.0000   0.0000

          k =-0.5000-0.0962 0.2516 (  4105 PWs)   bands (ev):

    -6.3837  -6.3768  -5.5854  -5.5771  -3.8598  -3.8519   0.5537   0.5966
     1.2990   1.3746   2.0883   2.1617   3.4172   3.5441   4.9724   5.1789
     5.5449   5.7984   6.6804   6.7406   7.4380   7.5083   8.5049   8.6180
    10.3289  10.4077

     occupation numbers 
     1.0000   1.0000   1.0000   1.0000   1.0000   1.0000   1.0000   1.0000
     1.0000   1.0000   1.0000   1.0000   1.0000   1.0000   1.0000   1.0000
     1.0000   0.9999   0.0000   0.0000   0.0000   0.0000   0.0000   0.0000
     0.0000   0.0000

          k =-0.5000-0.0962-0.3774 (  4100 PWs)   bands (ev):

    -6.1207  -6.1184  -5.9067  -5.9037  -3.8147  -3.8130   0.5400   0.5676
     1.4772   1.5058   1.6203   1.7022   4.2599   4.3627   4.7492   4.7883
     5.5675   5.6396   6.8811   6.9849   7.5586   7.6232   8.1834   8.2319
    10.8088  10.8446

     occupation numbers 
     1.0000   1.0000   1.0000   1.0000   1.0000   1.0000   1.0000   1.0000
     1.0000   1.0000   1.0000   1.0000   1.0000   1.0000   1.0000   1.0000
     1.0000   1.0000   0.0000   0.0000   0.0000   0.0000   0.0000   0.0000
     0.0000   0.0000

          k = 0.0000 0.1925-0.1258 (  4135 PWs)   bands (ev):

    -7.3924  -7.3909  -5.1827  -5.1794  -3.5204  -3.5176   1.8042   1.8932
     2.5159   2.7087   2.7943   3.1523   4.2446   4.2979   4.3892   4.5682
     4.8117   5.0004   6.9953   7.0959   7.3822   7.5071   7.7824   7.8821
    10.6797  10.7206

     occupation numbers 
     1.0000   1.0000   1.0000   1.0000   1.0000   1.0000   1.0000   1.0000
     1.0000   1.0000   1.0000   1.0000   1.0000   1.0000   1.0000   1.0000
     1.0000   1.0000   0.0000   0.0000   0.0000   0.0000   0.0000   0.0000
     0.0000   0.0000

          k = 0.0000 0.1925-0.2516 (  4131 PWs)   bands (ev):

    -7.1015  -7.0988  -5.9669  -5.9630  -2.8533  -2.8488   1.8215   1.8911
     2.6367   2.7992   3.0536   3.2980   3.7343   3.9573   4.1612   4.2500
     4.6343   4.7846   7.0156   7.0588   7.6399   7.7309   7.7963   7.8610
    10.6232  10.6418

     occupation numbers 
     1.0000   1.0000   1.0000   1.0000   1.0000   1.0000   1.0000   1.0000
     1.0000   1.0000   1.0000   1.0000   1.0000   1.0000   1.0000   1.0000
     1.0000   1.0000   0.0000   0.0000   0.0000   0.0000   0.0000   0.0000
     0.0000   0.0000

          k = 0.0000 0.3849-0.1258 (  4112 PWs)   bands (ev):

    -6.9455  -6.9431  -5.0248  -5.0209  -3.9817  -3.9755   1.3167   1.4313
     1.8042   1.9256   2.5371   2.7704   2.7980   3.0265   4.3550   4.6089
     4.7965   4.9622   6.9912   7.0945   7.6796   7.9201   9.1811   9.1941
     9.9690  10.0832

     occupation numbers 
     1.0000   1.0000   1.0000   1.0000   1.0000   1.0000   1.0000   1.0000
     1.0000   1.0000   1.0000   1.0000   1.0000   1.0000   1.0000   1.0000
     1.0000   1.0000   0.0000   0.0000   0.0000   0.0000   0.0000   0.0000
     0.0000   0.0000

          k = 0.0000 0.3849-0.2516 (  4116 PWs)   bands (ev):

    -6.6966  -6.6924  -5.6454  -5.6401  -3.6114  -3.6052   1.1892   1.2637
     1.9487   2.1076   2.5453   2.6877   3.3006   3.6610   3.9105   4.0721
     4.4083   4.6310   7.4040   7.4614   8.2271   8.3899   8.8747   8.8888
    10.5991  10.7109

     occupation numbers 
     1.0000   1.0000   1.0000   1.0000   1.0000   1.0000   1.0000   1.0000
     1.0000   1.0000   1.0000   1.0000   1.0000   1.0000   1.0000   1.0000
     1.0000   1.0000   0.0000   0.0000   0.0000   0.0000   0.0000   0.0000
     0.0000   0.0000

          k =-0.1667 0.0962-0.1258 (  4133 PWs)   bands (ev):

    -7.3898  -7.3883  -5.2105  -5.2072  -3.4630  -3.4601   1.8288   1.9035
     2.0019   2.1349   2.8844   3.0740   4.6416   4.7739   4.9507   5.1476
     5.3449   5.4385   6.6008   6.6297   6.7724   6.9111   7.4110   7.4710
     9.9872   9.9961

     occupation numbers 
     1.0000   1.0000   1.0000   1.0000   1.0000   1.0000   1.0000   1.0000
     1.0000   1.0000   1.0000   1.0000   1.0000   1.0000   1.0000   1.0000
     1.0000   1.0000   0.0000   0.0000   0.0000   0.0000   0.0000   0.0000
     0.0000   0.0000

          k =-0.1667 0.0962-0.2516 (  4131 PWs)   bands (ev):

    -7.0957  -7.0930  -5.9842  -5.9802  -2.8023  -2.7978   1.6942   1.7892
     2.1699   2.3486   2.9878   3.1692   4.4459   4.5163   4.6601   4.7597
     4.9268   5.0247   6.6422   6.7537   6.9646   7.1197   7.6847   7.6977
    10.0151  10.0416

     occupation numbers 
     1.0000   1.0000   1.0000   1.0000   1.0000   1.0000   1.0000   1.0000
     1.0000   1.0000   1.0000   1.0000   1.0000   1.0000   1.0000   1.0000
     1.0000   1.0000   0.0000   0.0000   0.0000   0.0000   0.0000   0.0000
     0.0000   0.0000

          k =-0.1667 0.2887-0.1258 (  4123 PWs)   bands (ev):

    -7.0712  -7.0691  -5.1078  -5.1037  -3.7588  -3.7534   1.2363   1.3000
     1.6641   1.7241   2.7593   2.8970   3.5966   3.6902   4.3610   4.4788
     5.4150   5.4810   6.8777   6.9464   7.6330   7.6769   8.2476   8.2803
    10.2280  10.2588

     occupation numbers 
     1.0000   1.0000   1.0000   1.0000   1.0000   1.0000   1.0000   1.0000
     1.0000   1.0000   1.0000   1.0000   1.0000   1.0000   1.0000   1.0000
     1.0000   1.0000   0.0000   0.0000   0.0000   0.0000   0.0000   0.0000
     0.0000   0.0000

          k =-0.1667 0.2887-0.2516 (  4105 PWs)   bands (ev):

    -6.7993  -6.7955  -5.7758  -5.7706  -3.3174  -3.3114   1.2464   1.3395
     1.7553   1.8905   2.5973   2.7122   3.2965   3.4774   4.8150   4.9408
     5.1690   5.2849   6.8115   6.8645   7.6396   7.6517   8.4344   8.4890
    10.4154  10.4362

     occupation numbers 
     1.0000   1.0000   1.0000   1.0000   1.0000   1.0000   1.0000   1.0000
     1.0000   1.0000   1.0000   1.0000   1.0000   1.0000   1.0000   1.0000
     1.0000   1.0000   0.0000   0.0000   0.0000   0.0000   0.0000   0.0000
     0.0000   0.0000

          k =-0.1667 0.4811-0.1258 (  4104 PWs)   bands (ev):

    -6.6294  -6.6258  -5.0567  -5.0519  -4.1715  -4.1625   1.0118   1.0632
     1.4138   1.4884   2.3913   2.5567   2.8064   3.1835   3.6384   3.8323
     5.0901   5.1540   7.1550   7.2135   8.2139   8.2672   9.2854   9.3091
    10.1148  10.1710

     occupation numbers 
     1.0000   1.0000   1.0000   1.0000   1.0000   1.0000   1.0000   1.0000
     1.0000   1.0000   1.0000   1.0000   1.0000   1.0000   1.0000   1.0000
     1.0000   1.0000   0.0000   0.0000   0.0000   0.0000   0.0000   0.0000
     0.0000   0.0000

          k =-0.1667 0.4811-0.2516 (  4105 PWs)   bands (ev):

    -6.4070  -6.4007  -5.5189  -5.5115  -3.9417  -3.9339   0.8037   0.8774
     1.1970   1.2638   2.0447   2.1193   3.5325   3.7421   4.4351   4.5757
     5.3427   5.4741   6.9425   6.9709   8.0842   8.1535   8.5837   8.6251
    10.5902  10.6363

     occupation numbers 
     1.0000   1.0000   1.0000   1.0000   1.0000   1.0000   1.0000   1.0000
     1.0000   1.0000   1.0000   1.0000   1.0000   1.0000   1.0000   1.0000
     1.0000   1.0000   0.0000   0.0000   0.0000   0.0000   0.0000   0.0000
     0.0000   0.0000

          k =-0.3333 0.1925-0.1258 (  4112 PWs)   bands (ev):

    -6.9281  -6.9255  -5.1857  -5.1813  -3.7277  -3.7212   0.8856   0.9140
     1.3788   1.4796   2.4295   2.5691   4.2306   4.4865   4.7041   4.9828
     5.0000   5.2043   6.7982   6.8551   7.2790   7.3856   7.9037   7.9304
     9.3092   9.3704

     occupation numbers 
     1.0000   1.0000   1.0000   1.0000   1.0000   1.0000   1.0000   1.0000
     1.0000   1.0000   1.0000   1.0000   1.0000   1.0000   1.0000   1.0000
     1.0000   1.0000   0.0000   0.0000   0.0000   0.0000   0.0000   0.0000
     0.0000   0.0000

          k =-0.3333 0.1925-0.2516 (  4116 PWs)   bands (ev):

    -6.6588  -6.6539  -5.7569  -5.7505  -3.4238  -3.4174   0.7188   0.7632
     1.6184   1.7376   2.5763   2.6911   3.9547   4.1174   4.3378   4.4413
     5.7775   5.8305   6.6725   6.7452   7.3102   7.4449   7.7878   8.1309
     9.7917   9.9283

     occupation numbers 
     1.0000   1.0000   1.0000   1.0000   1.0000   1.0000   1.0000   1.0000
     1.0000   1.0000   1.0000   1.0000   1.0000   1.0000   1.0000   1.0000
     1.0000   0.9996   0.0000   0.0000   0.0000   0.0000   0.0000   0.0000
     0.0000   0.0000

          k =-0.3333 0.3849-0.1258 (  4104 PWs)   bands (ev):

    -6.6185  -6.6147  -5.1423  -5.1371  -4.0587  -4.0499   0.8207   0.8537
     1.3244   1.4275   2.3534   2.4851   3.1658   3.3337   4.0431   4.1765
     4.8590   4.9813   7.2976   7.3607   8.3281   8.3596   8.4828   8.5503
    10.0048  10.0599

     occupation numbers 
     1.0000   1.0000   1.0000   1.0000   1.0000   1.0000   1.0000   1.0000
     1.0000   1.0000   1.0000   1.0000   1.0000   1.0000   1.0000   1.0000
     1.0000   1.0000   0.0000   0.0000   0.0000   0.0000   0.0000   0.0000
     0.0000   0.0000

          k =-0.3333 0.3849-0.2516 (  4105 PWs)   bands (ev):

    -6.3837  -6.3768  -5.5854  -5.5771  -3.8598  -3.8519   0.5537   0.5966
     1.2990   1.3746   2.0882   2.1616   3.4173   3.5441   4.9724   5.1788
     5.5448   5.7984   6.6804   6.7406   7.4380   7.5083   8.5050   8.6180
    10.3289  10.4076

     occupation numbers 
     1.0000   1.0000   1.0000   1.0000   1.0000   1.0000   1.0000   1.0000
     1.0000   1.0000   1.0000   1.0000   1.0000   1.0000   1.0000   1.0000
     1.0000   0.9999   0.0000   0.0000   0.0000   0.0000   0.0000   0.0000
     0.0000   0.0000

          k = 0.5000-0.0962-0.1258 (  4105 PWs)   bands (ev):

    -6.6294  -6.6258  -5.0567  -5.0518  -4.1715  -4.1625   1.0118   1.0632
     1.4139   1.4884   2.3913   2.5566   2.8065   3.1835   3.6384   3.8323
     5.0901   5.1540   7.1551   7.2135   8.2139   8.2673   9.2854   9.3091
    10.1149  10.1710

     occupation numbers 
     1.0000   1.0000   1.0000   1.0000   1.0000   1.0000   1.0000   1.0000
     1.0000   1.0000   1.0000   1.0000   1.0000   1.0000   1.0000   1.0000
     1.0000   1.0000   0.0000   0.0000   0.0000   0.0000   0.0000   0.0000
     0.0000   0.0000

          k = 0.5000-0.0962-0.2516 (  4105 PWs)   bands (ev):

    -6.4070  -6.4008  -5.5189  -5.5115  -3.9417  -3.9339   0.8037   0.8774
     1.1970   1.2638   2.0447   2.1193   3.5325   3.7421   4.4352   4.5758
     5.3427   5.4741   6.9425   6.9709   8.0842   8.1535   8.5836   8.6251
    10.5903  10.6363

     occupation numbers 
     1.0000   1.0000   1.0000   1.0000   1.0000   1.0000   1.0000   1.0000
     1.0000   1.0000   1.0000   1.0000   1.0000   1.0000   1.0000   1.0000
     1.0000   1.0000   0.0000   0.0000   0.0000   0.0000   0.0000   0.0000
     0.0000   0.0000

     the Fermi energy is     6.1546 ev

!    total energy              =     -85.64366248 Ry
     estimated scf accuracy    <          5.3E-09 Ry
     smearing contrib. (-TS)   =      -0.00009184 Ry
     internal energy E=F+TS    =     -85.64357064 Ry

     The total energy is F=E-TS. E is the sum of the following terms:
     one-electron contribution =      10.13642930 Ry
     hartree contribution      =       3.38518108 Ry
     xc contribution           =     -49.70262248 Ry
     ewald contribution        =     -49.46255853 Ry

     convergence has been achieved in   8 iterations


     Computing stress (Cartesian axis) and pressure

          total   stress  (Ry/bohr**3)                   (kbar)     P=       24.33
   0.00014076   0.00000000   0.00000000           20.71        0.00        0.00
   0.00000000   0.00014076  -0.00000000            0.00       20.71       -0.00
   0.00000000  -0.00000000   0.00021476            0.00       -0.00       31.59

     kinetic stress (kbar)   2337.59      0.00      0.00
                                0.00   2337.59      0.00
                                0.00      0.00   2213.35

     local   stress (kbar)    152.03     -0.00     -0.00
                               -0.00    152.02      0.02
                               -0.00      0.02   -573.17

     nonloc. stress (kbar)   2367.70      0.00      0.00
                                0.00   2367.70     -0.00
                                0.00     -0.00   2357.89

     hartree stress (kbar)    182.32      0.00      0.00
                                0.00    182.32     -0.00
                                0.00     -0.00    358.30

     exc-cor stress (kbar)   6991.20      0.00      0.00
                                0.00   6991.20     -0.00
                                0.00     -0.00   6993.53

     corecor stress (kbar)  -8261.17     -0.00     -0.00
                               -0.00  -8261.17     -0.00
                               -0.00     -0.00  -8253.05

     ewald   stress (kbar)  -3748.97      0.00      0.00
                                0.00  -3748.97     -0.01
                                0.00     -0.01  -3065.26

     hubbard stress (kbar)      0.00      0.00      0.00
                                0.00      0.00      0.00
                                0.00      0.00      0.00

     DFT-D   stress (kbar)      0.00      0.00      0.00
                                0.00      0.00      0.00
                                0.00      0.00      0.00

     XDM     stress (kbar)      0.00      0.00      0.00
                                0.00      0.00      0.00
                                0.00      0.00      0.00

     dft-nl  stress (kbar)      0.00      0.00      0.00
                                0.00      0.00      0.00
                                0.00      0.00      0.00

     TS-vdW  stress (kbar)      0.00      0.00      0.00
                                0.00      0.00      0.00
                                0.00      0.00      0.00

     MDB     stress (kbar)      0.00      0.00      0.00
                                0.00      0.00      0.00
                                0.00      0.00      0.00

     3D-RISM stress (kbar)      0.00      0.00      0.00
                                0.00      0.00      0.00
                                0.00      0.00      0.00


     Writing all to output data dir /home/user/workspace/qe_runs/strain_pois_m0025/out/tepois_m0025.save/ :
     XML data file, charge density, pseudopotentials, collected wavefunctions

     init_run     :      6.81s CPU     14.21s WALL (       1 calls)
     electrons    :    113.03s CPU    135.01s WALL (       1 calls)
     stress       :      6.12s CPU      6.43s WALL (       1 calls)

     Called by init_run:
     wfcinit      :      5.86s CPU     12.00s WALL (       1 calls)
     wfcinit:atom :      0.03s CPU      0.10s WALL (      68 calls)
     wfcinit:wfcr :      5.72s CPU     11.71s WALL (      68 calls)
     potinit      :      0.20s CPU      0.42s WALL (       1 calls)
     hinit0       :      0.47s CPU      0.96s WALL (       1 calls)

     Called by electrons:
     c_bands      :     96.76s CPU    116.23s WALL (       8 calls)
     sum_band     :     13.92s CPU     15.61s WALL (       8 calls)
     v_of_rho     :      0.23s CPU      0.28s WALL (       9 calls)
     v_h          :      0.01s CPU      0.02s WALL (       9 calls)
     v_xc         :      0.24s CPU      0.29s WALL (      10 calls)
     newd         :      2.20s CPU      3.48s WALL (       9 calls)
     mix_rho      :      0.12s CPU      0.14s WALL (       8 calls)

     Called by c_bands:
     init_us_2    :      1.16s CPU      1.26s WALL (    1224 calls)
     cegterg      :     83.33s CPU    102.09s WALL (     544 calls)

     Called by sum_band:
     sum_band:wei :      0.01s CPU      0.01s WALL (       8 calls)
     sum_band:loo :     11.79s CPU     12.08s WALL (       8 calls)
     sum_band:buf :      0.20s CPU      0.20s WALL (     544 calls)
     sum_band:ini :      0.51s CPU      0.52s WALL (     544 calls)
     sum_band:cal :      1.09s CPU      1.12s WALL (     544 calls)
     sum_band:bec :      1.28s CPU      1.29s WALL (     544 calls)
     addusdens    :      2.03s CPU      3.43s WALL (       8 calls)
                                        0.00s GPU  (       8 calls)
     addusd:skk   :      0.00s CPU      0.00s WALL (       8 calls)
                                        0.00s GPU  (       8 calls)

     Called by *egterg:
     cdiaghg      :      2.56s CPU      3.13s WALL (    3150 calls)
     cegterg:over :      4.04s CPU      5.22s WALL (    2606 calls)
     cegterg:upda :      2.07s CPU      2.38s WALL (    2606 calls)
     cegterg:last :      3.88s CPU      4.44s WALL (    1529 calls)
     h_psi        :     69.71s CPU     90.16s WALL (    3218 calls)
     s_psi        :      3.57s CPU      4.11s WALL (    3218 calls)
     g_psi        :      0.71s CPU      0.82s WALL (    2606 calls)

     Called by h_psi:
     h_psi:calbec :      4.67s CPU      5.99s WALL (    3218 calls)
     vloc_psi     :     60.93s CPU     79.54s WALL (    3218 calls)
                                        0.00s GPU  (    3218 calls)
     add_vuspsi   :      3.65s CPU      4.07s WALL (    3218 calls)

     General routines
     calbec       :      7.47s CPU      8.84s WALL (    4646 calls)
     fft          :      0.39s CPU      0.64s WALL (     228 calls)
     ffts         :      0.17s CPU      0.30s WALL (      68 calls)
     fftw         :     60.63s CPU     78.13s WALL (  223904 calls)
     interpolate  :      0.19s CPU      0.34s WALL (      36 calls)

     Parallel routines

     PWSCF        :   2m 6.17s CPU   2m48.53s WALL


   This run was terminated on:   8:14:11  20Aug2026            

=------------------------------------------------------------------------------=
   JOB DONE.
=------------------------------------------------------------------------------=

