
     Program PWSCF v.7.5 starts on 20Aug2026 at  8:14:12 

     This program is part of the open-source Quantum ESPRESSO suite
     for quantum simulation of materials; please cite
         "P. Giannozzi et al., J. Phys.:Condens. Matter 21 395502 (2009);
         "P. Giannozzi et al., J. Phys.:Condens. Matter 29 465901 (2017);
         "P. Giannozzi et al., J. Chem. Phys. 152 154105 (2020);
          URL http://www.quantum-espresso.org", 
     in publications or presentations arising from this work. More details at
     http://www.quantum-espresso.org/quote

     Parallel version (MPI & OpenMP), running on       2 processor cores
     Number of MPI processes:                 2
     Threads/MPI process:                     1

     MPI processes distributed on     1 nodes
     1249 MiB available memory on the printing compute node when the environment starts

     Reading input from strain_pois_m0025/bands.in

     Current dimensions of program PWSCF are:
     Max number of different atomic species (ntypx) = 10
     Max number of k-points (npk) =  40000
     Max angular momentum in pseudopotentials (lmaxx) =  4
     file Te.rel-pbe-n-rrkjus_psl.1.0.0.UPF: wavefunction(s)  5S renormalized

     Atomic positions and unit cell read from directory:
     /home/user/workspace/qe_runs/strain_pois_m0025/out/tepois_m0025.save/

     Message from routine setup:
     using ibrav=0 with symmetry is DISCOURAGED, use correct ibrav instead

     R & G space division:  proc/nbgrp/npool/nimage =       2
     Subspace diagonalization in iterative solution of the eigenvalue problem:
     a serial algorithm will be used


     Parallelization info
     --------------------
     sticks:   dense  smooth     PW     G-vecs:    dense   smooth      PW
     Min         741     483    150                30217    16402    2707
     Max         742     484    151                30222    16403    2708
     Sum        1483     967    301                60439    32805    5415

     Using Slab Decomposition



     bravais-lattice index     =            0
     lattice parameter (alat)  =       8.4361  a.u.
     unit-cell volume          =     688.8246 (a.u.)^3
     number of atoms/cell      =            3
     number of atomic types    =            1
     number of electrons       =        18.00
     number of Kohn-Sham states=           28
     kinetic-energy cutoff     =      50.0000  Ry
     charge density cutoff     =     300.0000  Ry
     Exchange-correlation= PBE
                           (   1   4   3   4   0   0   0)
     Non magnetic calculation with spin-orbit


     celldm(1)=   8.436115  celldm(2)=   0.000000  celldm(3)=   0.000000
     celldm(4)=   0.000000  celldm(5)=   0.000000  celldm(6)=   0.000000

     crystal axes: (cart. coord. in units of alat)
               a(1) = (   1.000000   0.000000   0.000000 )  
               a(2) = (  -0.500000   0.866022   0.000000 )  
               a(3) = (   0.000000   0.000000   1.324806 )  

     reciprocal axes: (cart. coord. in units 2 pi/alat)
               b(1) = (  1.000000  0.577353 -0.000000 )  
               b(2) = (  0.000000  1.154705  0.000000 )  
               b(3) = (  0.000000 -0.000000  0.754827 )  


     PseudoPot. # 1 for Te read from file:
     /home/user/workspace/qe_runs/pseudo/Te.rel-pbe-n-rrkjus_psl.1.0.0.UPF
     MD5 check sum: 7fd30b6833abd190471e4dcc2367351b
     Pseudo is Ultrasoft + core correction, Zval =  6.0
     Generated using &quot;atomic&quot; code by A. Dal Corso  v.6.3
     Using radial grid of 1245 points, 10 beta functions with: 
                l(1) =   0
                l(2) =   0
                l(3) =   1
                l(4) =   1
                l(5) =   1
                l(6) =   1
                l(7) =   2
                l(8) =   2
                l(9) =   2
               l(10) =   2
     Q(r) pseudized with 0 coefficients 


     atomic species   valence    mass     pseudopotential
     Te                6.00   127.60000     Te( 1.00)

      2 Sym. Ops. (no inversion) found ( 1 have fractional translation)


                                    s                        frac. trans.

      isym =  1     identity                                     

 cryst.   s( 1) = (     1          0          0      )
                  (     0          1          0      )
                  (     0          0          1      )

 cart.    s( 1) = (  1.0000000  0.0000000  0.0000000 )
                  (  0.0000000  1.0000000  0.0000000 )
                  (  0.0000000  0.0000000  1.0000000 )


      isym =  2     180 deg rotation - cart. axis [1,0,0]        

 cryst.   s( 2) = (     1          0          0      )    f =(  0.0000000 )
                  (    -1         -1          0      )       (  0.0000000 )
                  (     0          0         -1      )       (  0.3333334 )

 cart.    s( 2) = (  1.0000000  0.0000000  0.0000000 )    f =(  0.0000000 )
                  (  0.0000000 -1.0000000  0.0000000 )       (  0.0000000 )
                  (  0.0000000  0.0000000 -1.0000000 )       (  0.4416022 )


   Cartesian axes

     site n.     atom                  positions (alat units)
         1        Te     tau(   1) = (   0.2636000   0.0000000   0.4416020  )
         2        Te     tau(   2) = (  -0.1318000   0.2282833   0.8832042  )
         3        Te     tau(   3) = (  -0.1318000  -0.2282833   0.0000000  )

   Crystallographic axes

     site n.     atom                  positions (cryst. coord.)
         1        Te     tau(   1) = (  0.2636000  0.0000000  0.3333333  )
         2        Te     tau(   2) = (  0.0000000  0.2636000  0.6666667  )
         3        Te     tau(   3) = ( -0.2636000 -0.2636000  0.0000000  )

     number of k points=     7  Gaussian smearing, width (Ry)=  0.0100
                       cart. coord. in units 2pi/alat
        k(    1) = (   0.3333333   0.5773527   0.0000000), wk =   0.1428571
        k(    2) = (   0.3333333   0.5773527   0.1509655), wk =   0.1428571
        k(    3) = (   0.3333333   0.5773527   0.3019309), wk =   0.1428571
        k(    4) = (   0.3333333   0.5773527   0.3774137), wk =   0.1428571
        k(    5) = (   0.3333333   0.5773527   0.4528964), wk =   0.1428571
        k(    6) = (   0.3333333   0.5773527   0.6038619), wk =   0.1428571
        k(    7) = (   0.0000000   0.0000000   0.3774137), wk =   0.1428571

                       cryst. coord.
        k(    1) = (   0.3333333   0.3333333   0.0000000), wk =   0.1428571
        k(    2) = (   0.3333333   0.3333333   0.2000000), wk =   0.1428571
        k(    3) = (   0.3333333   0.3333333   0.4000000), wk =   0.1428571
        k(    4) = (   0.3333333   0.3333333   0.5000000), wk =   0.1428571
        k(    5) = (   0.3333333   0.3333333   0.6000000), wk =   0.1428571
        k(    6) = (   0.3333333   0.3333333   0.8000000), wk =   0.1428571
        k(    7) = (   0.0000000   0.0000000   0.5000000), wk =   0.1428571

     Dense  grid:    60439 G-vectors     FFT dimensions: (  48,  48,  72)

     Smooth grid:    32805 G-vectors     FFT dimensions: (  40,  40,  54)

     Dynamical RAM for                 wfc:       1.76 MB

     Dynamical RAM for     wfc (w. buffer):       1.76 MB

     Dynamical RAM for           str. fact:       0.46 MB

     Dynamical RAM for           local pot:       0.00 MB

     Dynamical RAM for          nlocal pot:       3.20 MB

     Dynamical RAM for                qrad:       3.64 MB

     Dynamical RAM for          rho,v,vnew:      13.13 MB

     Dynamical RAM for           G-vectors:       1.85 MB

     Dynamical RAM for          h,s,v(r/c):       0.14 MB

     Dynamical RAM for          <psi|beta>:       0.09 MB

     Dynamical RAM for                 psi:       3.51 MB

     Dynamical RAM for                hpsi:       3.51 MB

     Dynamical RAM for                spsi:       3.51 MB

     Dynamical RAM for      wfcinit/wfcrot:       2.65 MB

     Dynamical RAM for           addusdens:     282.69 MB

     Estimated static dynamical RAM per process >      30.03 MB

     Estimated max dynamical RAM per process >     312.71 MB

     Estimated total dynamical RAM >     625.43 MB

     The potential is recalculated from file :
     /home/user/workspace/qe_runs/strain_pois_m0025/out/tepois_m0025.save/charge-density

     Starting wfcs are   24 randomized atomic wfcs +    4 random wfcs

     Band Structure Calculation
     Davidson diagonalization with overlap

     Computing kpt #:     1  of     7
     total cpu time spent up to now is        2.0 secs

     Computing kpt #:     2  of     7
     total cpu time spent up to now is        2.7 secs

     Computing kpt #:     3  of     7
     total cpu time spent up to now is        3.7 secs

     Computing kpt #:     4  of     7
     total cpu time spent up to now is        4.8 secs

     Computing kpt #:     5  of     7
     total cpu time spent up to now is        5.5 secs

     Computing kpt #:     6  of     7
     total cpu time spent up to now is        6.3 secs

     Computing kpt #:     7  of     7
     total cpu time spent up to now is        7.2 secs

     ethr =  1.00E-06,  avg # of iterations = 37.9

     total cpu time spent up to now is        7.2 secs

     End of band structure calculation

          k = 0.3333 0.5774 0.0000 (  4104 PWs)   bands (ev):

    -6.5092  -6.5092  -4.6641  -4.6611  -4.6611  -4.6494   1.2322   1.4203
     1.4203   1.4347   2.7643   2.7644   2.8607   3.0597   3.0597   3.0918
     3.4500   3.4500   8.7336   8.7752   8.9410   8.9410   9.1871   9.1871
    10.8417  10.8417  11.8475  11.8475

          k = 0.3333 0.5774 0.1510 (  4119 PWs)   bands (ev):

    -6.4042  -6.3987  -5.1404  -5.1353  -4.2741  -4.2635   0.8663   0.8943
     1.2317   1.3791   1.9639   2.0785   3.0201   3.2000   4.0719   4.1356
     4.4604   4.6689   8.0274   8.1740   8.5856   8.6433   8.6545   8.7176
    11.1299  11.1806  11.6006  11.6411

          k = 0.3333 0.5774 0.3019 (  4095 PWs)   bands (ev):

    -6.1005  -6.0909  -5.6511  -5.6408  -4.0345  -4.0286   0.7682   0.7703
     0.8319   0.8697   1.1658   1.2718   4.3776   4.4803   5.3598   5.5705
     5.6222   5.9797   6.6136   6.7088   7.5316   7.7021   7.7852   7.8321
    11.7713  11.7908  11.9925  12.0372

          k = 0.3333 0.5774 0.3774 (  4116 PWs)   bands (ev):

    -5.8893  -5.8893  -5.8823  -5.8751  -3.9986  -3.9986   0.7342   0.7342
     0.8834   0.9366   1.0098   1.0098   4.8348   4.8349   5.8007   5.8007
     6.0498   6.1828   6.1829   6.1893   7.3199   7.3852   7.5518   7.5518
    11.8773  11.8773  12.5436  12.5481

          k = 0.3333 0.5774 0.4529 (  4095 PWs)   bands (ev):

    -6.1005  -6.0909  -5.6511  -5.6408  -4.0345  -4.0286   0.7682   0.7703
     0.8319   0.8697   1.1658   1.2718   4.3776   4.4803   5.3598   5.5705
     5.6222   5.9797   6.6136   6.7088   7.5316   7.7021   7.7852   7.8321
    11.7713  11.7908  11.9925  12.0372

          k = 0.3333 0.5774 0.6039 (  4119 PWs)   bands (ev):

    -6.4042  -6.3987  -5.1404  -5.1353  -4.2741  -4.2635   0.8663   0.8943
     1.2317   1.3791   1.9639   2.0785   3.0201   3.2000   4.0719   4.1356
     4.4604   4.6689   8.0274   8.1740   8.5856   8.6433   8.6545   8.7176
    11.1299  11.1806  11.6005  11.6411

          k = 0.0000 0.0000 0.3774 (  4130 PWs)   bands (ev):

    -6.7712  -6.7712  -6.7681  -6.7681  -2.1740  -2.1740   1.8295   1.8295
     3.1457   3.1457   3.4316   3.4316   4.5375   4.5375   4.7613   4.7613
     5.0397   5.0397   6.4373   6.4373   6.5308   6.5308   6.7617   6.7617
    10.0264  10.0264  11.2859  11.2864

     Writing all to output data dir /home/user/workspace/qe_runs/strain_pois_m0025/out/tepois_m0025.save/ :
     XML data file, pseudopotentials, collected wavefunctions

     init_run     :      0.90s CPU      1.07s WALL (       1 calls)
     electrons    :      5.77s CPU      5.97s WALL (       1 calls)

     Called by init_run:
     wfcinit      :      0.00s CPU      0.00s WALL (       1 calls)
     wfcinit:atom :      0.00s CPU      0.00s WALL (       7 calls)
     wfcinit:wfcr :      0.27s CPU      0.29s WALL (       7 calls)
     potinit      :      0.17s CPU      0.18s WALL (       1 calls)
     hinit0       :      0.46s CPU      0.47s WALL (       1 calls)

     Called by electrons:
     c_bands      :      5.77s CPU      5.97s WALL (       1 calls)
     v_of_rho     :      0.03s CPU      0.03s WALL (       1 calls)
     v_h          :      0.00s CPU      0.00s WALL (       1 calls)
     v_xc         :      0.02s CPU      0.03s WALL (       1 calls)
     newd         :      0.26s CPU      0.40s WALL (       1 calls)

     Called by c_bands:
     init_us_2    :      0.00s CPU      0.01s WALL (       7 calls)
     cegterg      :      5.29s CPU      5.46s WALL (      17 calls)

     Called by sum_band:

     Called by *egterg:
     cdiaghg      :      0.22s CPU      0.23s WALL (     272 calls)
     cegterg:over :      0.29s CPU      0.29s WALL (     265 calls)
     cegterg:upda :      0.19s CPU      0.19s WALL (     265 calls)
     cegterg:last :      0.35s CPU      0.36s WALL (     105 calls)
     h_psi        :      4.08s CPU      4.25s WALL (     289 calls)
     s_psi        :      0.25s CPU      0.26s WALL (     289 calls)
     g_psi        :      0.05s CPU      0.05s WALL (     265 calls)

     Called by h_psi:
     h_psi:calbec :      0.30s CPU      0.31s WALL (     289 calls)
     vloc_psi     :      3.51s CPU      3.66s WALL (     289 calls)
                                        0.00s GPU  (     289 calls)
     add_vuspsi   :      0.25s CPU      0.26s WALL (     289 calls)

     General routines
     calbec       :      0.30s CPU      0.31s WALL (     289 calls)
     fft          :      0.21s CPU      0.22s WALL (      19 calls)
     ffts         :      0.14s CPU      0.14s WALL (       4 calls)
     fftw         :      3.09s CPU      3.23s WALL (   12688 calls)
     interpolate  :      0.14s CPU      0.14s WALL (       4 calls)
     davcio       :      0.01s CPU      0.01s WALL (      14 calls)

     Parallel routines

     PWSCF        :      6.83s CPU      9.76s WALL


   This run was terminated on:   8:14:22  20Aug2026            

=------------------------------------------------------------------------------=
   JOB DONE.
=------------------------------------------------------------------------------=
