
     Program PWSCF v.7.5 starts on 20Aug2026 at  8: 9:22 

     This program is part of the open-source Quantum ESPRESSO suite
     for quantum simulation of materials; please cite
         "P. Giannozzi et al., J. Phys.:Condens. Matter 21 395502 (2009);
         "P. Giannozzi et al., J. Phys.:Condens. Matter 29 465901 (2017);
         "P. Giannozzi et al., J. Chem. Phys. 152 154105 (2020);
          URL http://www.quantum-espresso.org", 
     in publications or presentations arising from this work. More details at
     http://www.quantum-espresso.org/quote

     Parallel version (MPI & OpenMP), running on       2 processor cores
     Number of MPI processes:                 2
     Threads/MPI process:                     1

     MPI processes distributed on     1 nodes
     1175 MiB available memory on the printing compute node when the environment starts

     Reading input from strain_pois_m0050/bands.in

     Current dimensions of program PWSCF are:
     Max number of different atomic species (ntypx) = 10
     Max number of k-points (npk) =  40000
     Max angular momentum in pseudopotentials (lmaxx) =  4
     file Te.rel-pbe-n-rrkjus_psl.1.0.0.UPF: wavefunction(s)  5S renormalized

     Atomic positions and unit cell read from directory:
     /home/user/workspace/qe_runs/strain_pois_m0050/out/tepois_m0050.save/

     Message from routine setup:
     using ibrav=0 with symmetry is DISCOURAGED, use correct ibrav instead

     R & G space division:  proc/nbgrp/npool/nimage =       2
     Subspace diagonalization in iterative solution of the eigenvalue problem:
     a serial algorithm will be used


     Parallelization info
     --------------------
     sticks:   dense  smooth     PW     G-vecs:    dense   smooth      PW
     Min         741     489    150                30227    16414    2707
     Max         742     490    151                30232    16415    2708
     Sum        1483     979    301                60459    32829    5415

     Using Slab Decomposition



     bravais-lattice index     =            0
     lattice parameter (alat)  =       8.4493  a.u.
     unit-cell volume          =     689.2545 (a.u.)^3
     number of atoms/cell      =            3
     number of atomic types    =            1
     number of electrons       =        18.00
     number of Kohn-Sham states=           28
     kinetic-energy cutoff     =      50.0000  Ry
     charge density cutoff     =     300.0000  Ry
     Exchange-correlation= PBE
                           (   1   4   3   4   0   0   0)
     Non magnetic calculation with spin-orbit


     celldm(1)=   8.449343  celldm(2)=   0.000000  celldm(3)=   0.000000
     celldm(4)=   0.000000  celldm(5)=   0.000000  celldm(6)=   0.000000

     crystal axes: (cart. coord. in units of alat)
               a(1) = (   1.000000   0.000000   0.000000 )  
               a(2) = (  -0.500000   0.866018   0.000000 )  
               a(3) = (   0.000000   0.000000   1.319422 )  

     reciprocal axes: (cart. coord. in units 2 pi/alat)
               b(1) = (  1.000000  0.577355 -0.000000 )  
               b(2) = (  0.000000  1.154710  0.000000 )  
               b(3) = (  0.000000 -0.000000  0.757908 )  


     PseudoPot. # 1 for Te read from file:
     /home/user/workspace/qe_runs/pseudo/Te.rel-pbe-n-rrkjus_psl.1.0.0.UPF
     MD5 check sum: 7fd30b6833abd190471e4dcc2367351b
     Pseudo is Ultrasoft + core correction, Zval =  6.0
     Generated using &quot;atomic&quot; code by A. Dal Corso  v.6.3
     Using radial grid of 1245 points, 10 beta functions with: 
                l(1) =   0
                l(2) =   0
                l(3) =   1
                l(4) =   1
                l(5) =   1
                l(6) =   1
                l(7) =   2
                l(8) =   2
                l(9) =   2
               l(10) =   2
     Q(r) pseudized with 0 coefficients 


     atomic species   valence    mass     pseudopotential
     Te                6.00   127.60000     Te( 1.00)

      2 Sym. Ops. (no inversion) found ( 1 have fractional translation)


                                    s                        frac. trans.

      isym =  1     identity                                     

 cryst.   s( 1) = (     1          0          0      )
                  (     0          1          0      )
                  (     0          0          1      )

 cart.    s( 1) = (  1.0000000  0.0000000  0.0000000 )
                  (  0.0000000  1.0000000  0.0000000 )
                  (  0.0000000  0.0000000  1.0000000 )


      isym =  2     180 deg rotation - cart. axis [1,0,0]        

 cryst.   s( 2) = (     1          0          0      )    f =(  0.0000000 )
                  (    -1         -1          0      )       (  0.0000000 )
                  (     0          0         -1      )       (  0.3333334 )

 cart.    s( 2) = (  1.0000000  0.0000000  0.0000000 )    f =(  0.0000000 )
                  (  0.0000000 -1.0000000  0.0000000 )       (  0.0000000 )
                  (  0.0000000  0.0000000 -1.0000000 )       (  0.4398074 )


   Cartesian axes

     site n.     atom                  positions (alat units)
         1        Te     tau(   1) = (   0.2636000   0.0000000   0.4398073  )
         2        Te     tau(   2) = (  -0.1318000   0.2282824   0.8796148  )
         3        Te     tau(   3) = (  -0.1318000  -0.2282824   0.0000000  )

   Crystallographic axes

     site n.     atom                  positions (cryst. coord.)
         1        Te     tau(   1) = (  0.2636000  0.0000000  0.3333333  )
         2        Te     tau(   2) = (  0.0000000  0.2636000  0.6666667  )
         3        Te     tau(   3) = ( -0.2636000 -0.2636000  0.0000000  )

     number of k points=     7  Gaussian smearing, width (Ry)=  0.0100
                       cart. coord. in units 2pi/alat
        k(    1) = (   0.3333333   0.5773551   0.0000000), wk =   0.1428571
        k(    2) = (   0.3333333   0.5773551   0.1515815), wk =   0.1428571
        k(    3) = (   0.3333333   0.5773551   0.3031630), wk =   0.1428571
        k(    4) = (   0.3333333   0.5773551   0.3789538), wk =   0.1428571
        k(    5) = (   0.3333333   0.5773551   0.4547446), wk =   0.1428571
        k(    6) = (   0.3333333   0.5773551   0.6063261), wk =   0.1428571
        k(    7) = (   0.0000000   0.0000000   0.3789538), wk =   0.1428571

                       cryst. coord.
        k(    1) = (   0.3333333   0.3333333   0.0000000), wk =   0.1428571
        k(    2) = (   0.3333333   0.3333333   0.2000000), wk =   0.1428571
        k(    3) = (   0.3333333   0.3333333   0.4000000), wk =   0.1428571
        k(    4) = (   0.3333333   0.3333333   0.5000000), wk =   0.1428571
        k(    5) = (   0.3333333   0.3333333   0.6000000), wk =   0.1428571
        k(    6) = (   0.3333333   0.3333333   0.8000000), wk =   0.1428571
        k(    7) = (   0.0000000   0.0000000   0.5000000), wk =   0.1428571

     Dense  grid:    60459 G-vectors     FFT dimensions: (  48,  48,  72)

     Smooth grid:    32829 G-vectors     FFT dimensions: (  40,  40,  54)

     Dynamical RAM for                 wfc:       1.76 MB

     Dynamical RAM for     wfc (w. buffer):       1.76 MB

     Dynamical RAM for           str. fact:       0.46 MB

     Dynamical RAM for           local pot:       0.00 MB

     Dynamical RAM for          nlocal pot:       3.20 MB

     Dynamical RAM for                qrad:       3.64 MB

     Dynamical RAM for          rho,v,vnew:      13.13 MB

     Dynamical RAM for           G-vectors:       1.86 MB

     Dynamical RAM for          h,s,v(r/c):       0.14 MB

     Dynamical RAM for          <psi|beta>:       0.09 MB

     Dynamical RAM for                 psi:       3.52 MB

     Dynamical RAM for                hpsi:       3.52 MB

     Dynamical RAM for                spsi:       3.52 MB

     Dynamical RAM for      wfcinit/wfcrot:       2.65 MB

     Dynamical RAM for           addusdens:     282.78 MB

     Estimated static dynamical RAM per process >      30.03 MB

     Estimated max dynamical RAM per process >     312.81 MB

     Estimated total dynamical RAM >     625.62 MB

     The potential is recalculated from file :
     /home/user/workspace/qe_runs/strain_pois_m0050/out/tepois_m0050.save/charge-density

     Starting wfcs are   24 randomized atomic wfcs +    4 random wfcs

     Band Structure Calculation
     Davidson diagonalization with overlap

     Computing kpt #:     1  of     7
     total cpu time spent up to now is        1.9 secs

     Computing kpt #:     2  of     7
     total cpu time spent up to now is        2.6 secs

     Computing kpt #:     3  of     7
     total cpu time spent up to now is        3.4 secs

     Computing kpt #:     4  of     7
     total cpu time spent up to now is        4.4 secs

     Computing kpt #:     5  of     7
     total cpu time spent up to now is        5.1 secs

     Computing kpt #:     6  of     7
     total cpu time spent up to now is        5.8 secs

     Computing kpt #:     7  of     7
     total cpu time spent up to now is        6.5 secs

     ethr =  1.00E-06,  avg # of iterations = 34.9

     total cpu time spent up to now is        6.5 secs

     End of band structure calculation

          k = 0.3333 0.5774 0.0000 (  4104 PWs)   bands (ev):

    -6.5233  -6.5233  -4.6704  -4.6674  -4.6674  -4.6557   1.2289   1.4178
     1.4178   1.4318   2.7646   2.7646   2.8607   3.0574   3.0574   3.0926
     3.4524   3.4524   8.7269   8.7689   8.9345   8.9345   9.1794   9.1794
    10.8165  10.8165  11.8263  11.8263

          k = 0.3333 0.5774 0.1516 (  4131 PWs)   bands (ev):

    -6.4177  -6.4121  -5.1480  -5.1428  -4.2795  -4.2688   0.8602   0.8880
     1.2281   1.3758   1.9606   2.0753   3.0238   3.2036   4.0729   4.1373
     4.4617   4.6708   8.0331   8.1801   8.5794   8.6373   8.6498   8.7104
    11.1082  11.1586  11.5769  11.6194

          k = 0.3333 0.5774 0.3032 (  4092 PWs)   bands (ev):

    -6.1123  -6.1026  -5.6606  -5.6503  -4.0392  -4.0332   0.7608   0.7642
     0.8262   0.8625   1.1597   1.2657   4.3849   4.4868   5.3593   5.5709
     5.6206   5.9787   6.6283   6.7231   7.5318   7.7048   7.7831   7.8330
    11.7508  11.7697  11.9814  12.0256

          k = 0.3333 0.5774 0.3790 (  4104 PWs)   bands (ev):

    -5.9000  -5.9000  -5.8930  -5.8858  -4.0032  -4.0032   0.7281   0.7281
     0.8764   0.9296   1.0027   1.0027   4.8404   4.8404   5.7991   5.7992
     6.0484   6.1865   6.1989   6.1989   7.3224   7.3856   7.5561   7.5561
    11.8590  11.8590  12.5394  12.5423

          k = 0.3333 0.5774 0.4547 (  4092 PWs)   bands (ev):

    -6.1123  -6.1026  -5.6606  -5.6503  -4.0392  -4.0332   0.7608   0.7642
     0.8262   0.8625   1.1597   1.2657   4.3849   4.4868   5.3593   5.5709
     5.6206   5.9787   6.6283   6.7231   7.5318   7.7048   7.7831   7.8330
    11.7508  11.7697  11.9814  12.0256

          k = 0.3333 0.5774 0.6063 (  4131 PWs)   bands (ev):

    -6.4177  -6.4121  -5.1480  -5.1428  -4.2795  -4.2688   0.8602   0.8880
     1.2281   1.3758   1.9606   2.0753   3.0238   3.2036   4.0729   4.1373
     4.4617   4.6708   8.0331   8.1801   8.5794   8.6373   8.6498   8.7104
    11.1082  11.1586  11.5768  11.6194

          k = 0.0000 0.0000 0.3790 (  4130 PWs)   bands (ev):

    -6.7753  -6.7753  -6.7722  -6.7722  -2.1768  -2.1768   1.8357   1.8357
     3.1260   3.1260   3.4100   3.4100   4.5278   4.5278   4.7419   4.7419
     5.0182   5.0182   6.4266   6.4266   6.5101   6.5101   6.7456   6.7456
    10.0334  10.0334  11.2651  11.2653

     Writing all to output data dir /home/user/workspace/qe_runs/strain_pois_m0050/out/tepois_m0050.save/ :
     XML data file, pseudopotentials, collected wavefunctions

     init_run     :      0.92s CPU      1.00s WALL (       1 calls)
     electrons    :      5.25s CPU      5.38s WALL (       1 calls)

     Called by init_run:
     wfcinit      :      0.00s CPU      0.00s WALL (       1 calls)
     wfcinit:atom :      0.00s CPU      0.00s WALL (       7 calls)
     wfcinit:wfcr :      0.26s CPU      0.26s WALL (       7 calls)
     potinit      :      0.17s CPU      0.17s WALL (       1 calls)
     hinit0       :      0.46s CPU      0.46s WALL (       1 calls)

     Called by electrons:
     c_bands      :      5.25s CPU      5.37s WALL (       1 calls)
     v_of_rho     :      0.03s CPU      0.03s WALL (       1 calls)
     v_h          :      0.00s CPU      0.00s WALL (       1 calls)
     v_xc         :      0.03s CPU      0.03s WALL (       1 calls)
     newd         :      0.26s CPU      0.34s WALL (       1 calls)

     Called by c_bands:
     init_us_2    :      0.00s CPU      0.01s WALL (       7 calls)
     cegterg      :      4.81s CPU      4.92s WALL (      15 calls)

     Called by sum_band:

     Called by *egterg:
     cdiaghg      :      0.21s CPU      0.21s WALL (     251 calls)
     cegterg:over :      0.27s CPU      0.27s WALL (     244 calls)
     cegterg:upda :      0.17s CPU      0.17s WALL (     244 calls)
     cegterg:last :      0.33s CPU      0.33s WALL (     101 calls)
     h_psi        :      3.72s CPU      3.82s WALL (     266 calls)
     s_psi        :      0.23s CPU      0.24s WALL (     266 calls)
     g_psi        :      0.05s CPU      0.05s WALL (     244 calls)

     Called by h_psi:
     h_psi:calbec :      0.27s CPU      0.28s WALL (     266 calls)
     vloc_psi     :      3.20s CPU      3.28s WALL (     266 calls)
                                        0.00s GPU  (     266 calls)
     add_vuspsi   :      0.23s CPU      0.23s WALL (     266 calls)

     General routines
     calbec       :      0.27s CPU      0.28s WALL (     266 calls)
     fft          :      0.21s CPU      0.21s WALL (      19 calls)
     ffts         :      0.14s CPU      0.14s WALL (       4 calls)
     fftw         :      2.82s CPU      2.89s WALL (   12160 calls)
     interpolate  :      0.14s CPU      0.14s WALL (       4 calls)
     davcio       :      0.01s CPU      0.01s WALL (      14 calls)

     Parallel routines

     PWSCF        :      6.32s CPU      6.58s WALL


   This run was terminated on:   8: 9:29  20Aug2026            

=------------------------------------------------------------------------------=
   JOB DONE.
=------------------------------------------------------------------------------=
