
     Program PWSCF v.7.5 starts on 20Aug2026 at  8: 7:17 

     This program is part of the open-source Quantum ESPRESSO suite
     for quantum simulation of materials; please cite
         "P. Giannozzi et al., J. Phys.:Condens. Matter 21 395502 (2009);
         "P. Giannozzi et al., J. Phys.:Condens. Matter 29 465901 (2017);
         "P. Giannozzi et al., J. Chem. Phys. 152 154105 (2020);
          URL http://www.quantum-espresso.org", 
     in publications or presentations arising from this work. More details at
     http://www.quantum-espresso.org/quote

     Parallel version (MPI & OpenMP), running on       2 processor cores
     Number of MPI processes:                 2
     Threads/MPI process:                     1

     MPI processes distributed on     1 nodes
     1416 MiB available memory on the printing compute node when the environment starts

     Reading input from strain_pois_m0050/scf.in

     Current dimensions of program PWSCF are:
     Max number of different atomic species (ntypx) = 10
     Max number of k-points (npk) =  40000
     Max angular momentum in pseudopotentials (lmaxx) =  4
     file Te.rel-pbe-n-rrkjus_psl.1.0.0.UPF: wavefunction(s)  5S renormalized
     Message from routine setup:
     using ibrav=0 with symmetry is DISCOURAGED, use correct ibrav instead

     R & G space division:  proc/nbgrp/npool/nimage =       2
     Subspace diagonalization in iterative solution of the eigenvalue problem:
     a serial algorithm will be used


     Parallelization info
     --------------------
     sticks:   dense  smooth     PW     G-vecs:    dense   smooth      PW
     Min         741     489    147                30227    16414    2590
     Max         742     490    148                30232    16415    2591
     Sum        1483     979    295                60459    32829    5181

     Using Slab Decomposition



     bravais-lattice index     =            0
     lattice parameter (alat)  =       8.4493  a.u.
     unit-cell volume          =     689.2545 (a.u.)^3
     number of atoms/cell      =            3
     number of atomic types    =            1
     number of electrons       =        18.00
     number of Kohn-Sham states=           26
     kinetic-energy cutoff     =      50.0000  Ry
     charge density cutoff     =     300.0000  Ry
     scf convergence threshold =      1.0E-08
     mixing beta               =       0.4000
     number of iterations used =            8  plain     mixing
     Exchange-correlation= PBE
                           (   1   4   3   4   0   0   0)
     Non magnetic calculation with spin-orbit


     celldm(1)=   8.449343  celldm(2)=   0.000000  celldm(3)=   0.000000
     celldm(4)=   0.000000  celldm(5)=   0.000000  celldm(6)=   0.000000

     crystal axes: (cart. coord. in units of alat)
               a(1) = (   1.000000   0.000000   0.000000 )  
               a(2) = (  -0.500000   0.866018   0.000000 )  
               a(3) = (   0.000000   0.000000   1.319422 )  

     reciprocal axes: (cart. coord. in units 2 pi/alat)
               b(1) = (  1.000000  0.577355 -0.000000 )  
               b(2) = (  0.000000  1.154710  0.000000 )  
               b(3) = (  0.000000 -0.000000  0.757908 )  


     PseudoPot. # 1 for Te read from file:
     /home/user/workspace/qe_runs/pseudo/Te.rel-pbe-n-rrkjus_psl.1.0.0.UPF
     MD5 check sum: 7fd30b6833abd190471e4dcc2367351b
     Pseudo is Ultrasoft + core correction, Zval =  6.0
     Generated using &quot;atomic&quot; code by A. Dal Corso  v.6.3
     Using radial grid of 1245 points, 10 beta functions with: 
                l(1) =   0
                l(2) =   0
                l(3) =   1
                l(4) =   1
                l(5) =   1
                l(6) =   1
                l(7) =   2
                l(8) =   2
                l(9) =   2
               l(10) =   2
     Q(r) pseudized with 0 coefficients 


     atomic species   valence    mass     pseudopotential
     Te                6.00   127.60000     Te( 1.00)

      2 Sym. Ops. (no inversion) found ( 1 have fractional translation)


                                    s                        frac. trans.

      isym =  1     identity                                     

 cryst.   s( 1) = (     1          0          0      )
                  (     0          1          0      )
                  (     0          0          1      )

 cart.    s( 1) = (  1.0000000  0.0000000  0.0000000 )
                  (  0.0000000  1.0000000  0.0000000 )
                  (  0.0000000  0.0000000  1.0000000 )


      isym =  2     180 deg rotation - cart. axis [1,0,0]        

 cryst.   s( 2) = (     1          0          0      )    f =(  0.0000000 )
                  (    -1         -1          0      )       (  0.0000000 )
                  (     0          0         -1      )       (  0.3333334 )

 cart.    s( 2) = (  1.0000000  0.0000000  0.0000000 )    f =(  0.0000000 )
                  (  0.0000000 -1.0000000  0.0000000 )       (  0.0000000 )
                  (  0.0000000  0.0000000 -1.0000000 )       (  0.4398074 )


   Cartesian axes

     site n.     atom                  positions (alat units)
         1        Te     tau(   1) = (   0.2636000   0.0000000   0.4398073  )
         2        Te     tau(   2) = (  -0.1318000   0.2282824   0.8796148  )
         3        Te     tau(   3) = (  -0.1318000  -0.2282824   0.0000000  )

   Crystallographic axes

     site n.     atom                  positions (cryst. coord.)
         1        Te     tau(   1) = (  0.2636000  0.0000000  0.3333333  )
         2        Te     tau(   2) = (  0.0000000  0.2636000  0.6666667  )
         3        Te     tau(   3) = ( -0.2636000 -0.2636000  0.0000000  )

     number of k points=    68  Gaussian smearing, width (Ry)=  0.0100
                       cart. coord. in units 2pi/alat
        k(    1) = (   0.0000000   0.0000000   0.0000000), wk =   0.0046296
        k(    2) = (   0.0000000   0.0000000   0.1263179), wk =   0.0092593
        k(    3) = (   0.0000000   0.0000000   0.2526359), wk =   0.0092593
        k(    4) = (   0.0000000   0.0000000  -0.3789538), wk =   0.0046296
        k(    5) = (   0.0000000   0.1924517   0.0000000), wk =   0.0092593
        k(    6) = (   0.0000000   0.1924517   0.1263179), wk =   0.0092593
        k(    7) = (   0.0000000   0.1924517   0.2526359), wk =   0.0092593
        k(    8) = (   0.0000000   0.1924517  -0.3789538), wk =   0.0092593
        k(    9) = (   0.0000000   0.3849034   0.0000000), wk =   0.0092593
        k(   10) = (   0.0000000   0.3849034   0.1263179), wk =   0.0092593
        k(   11) = (   0.0000000   0.3849034   0.2526359), wk =   0.0092593
        k(   12) = (   0.0000000   0.3849034  -0.3789538), wk =   0.0092593
        k(   13) = (   0.0000000  -0.5773552   0.0000000), wk =   0.0046296
        k(   14) = (   0.0000000  -0.5773552   0.1263179), wk =   0.0092593
        k(   15) = (   0.0000000  -0.5773552   0.2526359), wk =   0.0092593
        k(   16) = (   0.0000000  -0.5773552  -0.3789538), wk =   0.0046296
        k(   17) = (   0.1666667   0.0962259   0.0000000), wk =   0.0185185
        k(   18) = (   0.1666667   0.0962259   0.1263179), wk =   0.0185185
        k(   19) = (   0.1666667   0.0962259   0.2526359), wk =   0.0185185
        k(   20) = (   0.1666667   0.0962259  -0.3789538), wk =   0.0185185
        k(   21) = (   0.1666667   0.2886776   0.0000000), wk =   0.0185185
        k(   22) = (   0.1666667   0.2886776   0.1263179), wk =   0.0185185
        k(   23) = (   0.1666667   0.2886776   0.2526359), wk =   0.0185185
        k(   24) = (   0.1666667   0.2886776  -0.3789538), wk =   0.0185185
        k(   25) = (   0.1666667   0.4811293   0.0000000), wk =   0.0185185
        k(   26) = (   0.1666667   0.4811293   0.1263179), wk =   0.0185185
        k(   27) = (   0.1666667   0.4811293   0.2526359), wk =   0.0185185
        k(   28) = (   0.1666667   0.4811293  -0.3789538), wk =   0.0185185
        k(   29) = (   0.3333333   0.1924517   0.0000000), wk =   0.0185185
        k(   30) = (   0.3333333   0.1924517   0.1263179), wk =   0.0185185
        k(   31) = (   0.3333333   0.1924517   0.2526359), wk =   0.0185185
        k(   32) = (   0.3333333   0.1924517  -0.3789538), wk =   0.0185185
        k(   33) = (   0.3333333   0.3849034   0.0000000), wk =   0.0185185
        k(   34) = (   0.3333333   0.3849034   0.1263179), wk =   0.0185185
        k(   35) = (   0.3333333   0.3849034   0.2526359), wk =   0.0185185
        k(   36) = (   0.3333333   0.3849034  -0.3789538), wk =   0.0185185
        k(   37) = (   0.3333333   0.5773552   0.0000000), wk =   0.0092593
        k(   38) = (   0.3333333   0.5773552   0.1263179), wk =   0.0185185
        k(   39) = (   0.3333333   0.5773552   0.2526359), wk =   0.0185185
        k(   40) = (   0.3333333   0.5773552  -0.3789538), wk =   0.0092593
        k(   41) = (   0.3333333   0.0000000   0.0000000), wk =   0.0092593
        k(   42) = (   0.3333333   0.0000000   0.1263179), wk =   0.0185185
        k(   43) = (   0.3333333   0.0000000   0.2526359), wk =   0.0185185
        k(   44) = (   0.3333333   0.0000000  -0.3789538), wk =   0.0092593
        k(   45) = (  -0.5000000  -0.2886776   0.0000000), wk =   0.0092593
        k(   46) = (  -0.5000000  -0.2886776   0.1263179), wk =   0.0185185
        k(   47) = (  -0.5000000  -0.2886776   0.2526359), wk =   0.0185185
        k(   48) = (  -0.5000000  -0.2886776  -0.3789538), wk =   0.0092593
        k(   49) = (  -0.5000000  -0.0962259   0.0000000), wk =   0.0185185
        k(   50) = (  -0.5000000  -0.0962259   0.1263179), wk =   0.0185185
        k(   51) = (  -0.5000000  -0.0962259   0.2526359), wk =   0.0185185
        k(   52) = (  -0.5000000  -0.0962259  -0.3789538), wk =   0.0185185
        k(   53) = (   0.0000000   0.1924517  -0.1263179), wk =   0.0092593
        k(   54) = (   0.0000000   0.1924517  -0.2526359), wk =   0.0092593
        k(   55) = (   0.0000000   0.3849034  -0.1263179), wk =   0.0092593
        k(   56) = (   0.0000000   0.3849034  -0.2526359), wk =   0.0092593
        k(   57) = (  -0.1666667   0.0962259  -0.1263179), wk =   0.0185185
        k(   58) = (  -0.1666667   0.0962259  -0.2526359), wk =   0.0185185
        k(   59) = (  -0.1666667   0.2886776  -0.1263179), wk =   0.0185185
        k(   60) = (  -0.1666667   0.2886776  -0.2526359), wk =   0.0185185
        k(   61) = (  -0.1666667   0.4811293  -0.1263179), wk =   0.0185185
        k(   62) = (  -0.1666667   0.4811293  -0.2526359), wk =   0.0185185
        k(   63) = (  -0.3333333   0.1924517  -0.1263179), wk =   0.0185185
        k(   64) = (  -0.3333333   0.1924517  -0.2526359), wk =   0.0185185
        k(   65) = (  -0.3333333   0.3849034  -0.1263179), wk =   0.0185185
        k(   66) = (  -0.3333333   0.3849034  -0.2526359), wk =   0.0185185
        k(   67) = (   0.5000000  -0.0962259  -0.1263179), wk =   0.0185185
        k(   68) = (   0.5000000  -0.0962259  -0.2526359), wk =   0.0185185

                       cryst. coord.
        k(    1) = (   0.0000000   0.0000000   0.0000000), wk =   0.0046296
        k(    2) = (   0.0000000   0.0000000   0.1666667), wk =   0.0092593
        k(    3) = (   0.0000000   0.0000000   0.3333333), wk =   0.0092593
        k(    4) = (   0.0000000   0.0000000  -0.5000000), wk =   0.0046296
        k(    5) = (   0.0000000   0.1666667   0.0000000), wk =   0.0092593
        k(    6) = (   0.0000000   0.1666667   0.1666667), wk =   0.0092593
        k(    7) = (   0.0000000   0.1666667   0.3333333), wk =   0.0092593
        k(    8) = (   0.0000000   0.1666667  -0.5000000), wk =   0.0092593
        k(    9) = (   0.0000000   0.3333333   0.0000000), wk =   0.0092593
        k(   10) = (   0.0000000   0.3333333   0.1666667), wk =   0.0092593
        k(   11) = (   0.0000000   0.3333333   0.3333333), wk =   0.0092593
        k(   12) = (   0.0000000   0.3333333  -0.5000000), wk =   0.0092593
        k(   13) = (   0.0000000  -0.5000000   0.0000000), wk =   0.0046296
        k(   14) = (   0.0000000  -0.5000000   0.1666667), wk =   0.0092593
        k(   15) = (   0.0000000  -0.5000000   0.3333333), wk =   0.0092593
        k(   16) = (   0.0000000  -0.5000000  -0.5000000), wk =   0.0046296
        k(   17) = (   0.1666667   0.0000000   0.0000000), wk =   0.0185185
        k(   18) = (   0.1666667   0.0000000   0.1666667), wk =   0.0185185
        k(   19) = (   0.1666667   0.0000000   0.3333333), wk =   0.0185185
        k(   20) = (   0.1666667   0.0000000  -0.5000000), wk =   0.0185185
        k(   21) = (   0.1666667   0.1666667   0.0000000), wk =   0.0185185
        k(   22) = (   0.1666667   0.1666667   0.1666667), wk =   0.0185185
        k(   23) = (   0.1666667   0.1666667   0.3333333), wk =   0.0185185
        k(   24) = (   0.1666667   0.1666667  -0.5000000), wk =   0.0185185
        k(   25) = (   0.1666667   0.3333333   0.0000000), wk =   0.0185185
        k(   26) = (   0.1666667   0.3333333   0.1666667), wk =   0.0185185
        k(   27) = (   0.1666667   0.3333333   0.3333333), wk =   0.0185185
        k(   28) = (   0.1666667   0.3333333  -0.5000000), wk =   0.0185185
        k(   29) = (   0.3333333   0.0000000   0.0000000), wk =   0.0185185
        k(   30) = (   0.3333333   0.0000000   0.1666667), wk =   0.0185185
        k(   31) = (   0.3333333   0.0000000   0.3333333), wk =   0.0185185
        k(   32) = (   0.3333333   0.0000000  -0.5000000), wk =   0.0185185
        k(   33) = (   0.3333333   0.1666667   0.0000000), wk =   0.0185185
        k(   34) = (   0.3333333   0.1666667   0.1666667), wk =   0.0185185
        k(   35) = (   0.3333333   0.1666667   0.3333333), wk =   0.0185185
        k(   36) = (   0.3333333   0.1666667  -0.5000000), wk =   0.0185185
        k(   37) = (   0.3333333   0.3333333   0.0000000), wk =   0.0092593
        k(   38) = (   0.3333333   0.3333333   0.1666667), wk =   0.0185185
        k(   39) = (   0.3333333   0.3333333   0.3333333), wk =   0.0185185
        k(   40) = (   0.3333333   0.3333333  -0.5000000), wk =   0.0092593
        k(   41) = (   0.3333333  -0.1666667   0.0000000), wk =   0.0092593
        k(   42) = (   0.3333333  -0.1666667   0.1666667), wk =   0.0185185
        k(   43) = (   0.3333333  -0.1666667   0.3333333), wk =   0.0185185
        k(   44) = (   0.3333333  -0.1666667  -0.5000000), wk =   0.0092593
        k(   45) = (  -0.5000000   0.0000000   0.0000000), wk =   0.0092593
        k(   46) = (  -0.5000000   0.0000000   0.1666667), wk =   0.0185185
        k(   47) = (  -0.5000000   0.0000000   0.3333333), wk =   0.0185185
        k(   48) = (  -0.5000000   0.0000000  -0.5000000), wk =   0.0092593
        k(   49) = (  -0.5000000   0.1666667   0.0000000), wk =   0.0185185
        k(   50) = (  -0.5000000   0.1666667   0.1666667), wk =   0.0185185
        k(   51) = (  -0.5000000   0.1666667   0.3333333), wk =   0.0185185
        k(   52) = (  -0.5000000   0.1666667  -0.5000000), wk =   0.0185185
        k(   53) = (   0.0000000   0.1666667  -0.1666667), wk =   0.0092593
        k(   54) = (   0.0000000   0.1666667  -0.3333333), wk =   0.0092593
        k(   55) = (   0.0000000   0.3333333  -0.1666667), wk =   0.0092593
        k(   56) = (   0.0000000   0.3333333  -0.3333333), wk =   0.0092593
        k(   57) = (  -0.1666667   0.1666667  -0.1666667), wk =   0.0185185
        k(   58) = (  -0.1666667   0.1666667  -0.3333333), wk =   0.0185185
        k(   59) = (  -0.1666667   0.3333333  -0.1666667), wk =   0.0185185
        k(   60) = (  -0.1666667   0.3333333  -0.3333333), wk =   0.0185185
        k(   61) = (  -0.1666667   0.5000000  -0.1666667), wk =   0.0185185
        k(   62) = (  -0.1666667   0.5000000  -0.3333333), wk =   0.0185185
        k(   63) = (  -0.3333333   0.3333333  -0.1666667), wk =   0.0185185
        k(   64) = (  -0.3333333   0.3333333  -0.3333333), wk =   0.0185185
        k(   65) = (  -0.3333333   0.5000000  -0.1666667), wk =   0.0185185
        k(   66) = (  -0.3333333   0.5000000  -0.3333333), wk =   0.0185185
        k(   67) = (   0.5000000  -0.3333333  -0.1666667), wk =   0.0185185
        k(   68) = (   0.5000000  -0.3333333  -0.3333333), wk =   0.0185185

     Dense  grid:    60459 G-vectors     FFT dimensions: (  48,  48,  72)

     Smooth grid:    32829 G-vectors     FFT dimensions: (  40,  40,  54)

     Dynamical RAM for                 wfc:       1.63 MB

     Dynamical RAM for     wfc (w. buffer):     112.62 MB

     Dynamical RAM for           str. fact:       0.46 MB

     Dynamical RAM for           local pot:       0.00 MB

     Dynamical RAM for          nlocal pot:       3.20 MB

     Dynamical RAM for                qrad:       3.64 MB

     Dynamical RAM for          rho,v,vnew:      13.13 MB

     Dynamical RAM for               rhoin:       4.38 MB

     Dynamical RAM for            rho*nmix:      29.52 MB

     Dynamical RAM for           G-vectors:       1.86 MB

     Dynamical RAM for          h,s,v(r/c):       0.12 MB

     Dynamical RAM for          <psi|beta>:       0.08 MB

     Dynamical RAM for                 psi:       3.26 MB

     Dynamical RAM for                hpsi:       3.26 MB

     Dynamical RAM for                spsi:       3.26 MB

     Dynamical RAM for      wfcinit/wfcrot:       2.46 MB

     Dynamical RAM for           addusdens:     282.78 MB

     Dynamical RAM for         addusstress:     289.70 MB

     Estimated static dynamical RAM per process >     145.27 MB

     Estimated max dynamical RAM per process >     464.49 MB

     Estimated total dynamical RAM >     928.98 MB

     Initial potential from superposition of free atoms

     starting charge      17.9993, renormalised to      18.0000
     Starting wfcs are   24 randomized atomic wfcs +    2 random wfcs

     total cpu time spent up to now is        3.9 secs

     per-process dynamical memory:   164.6 Mb

     Self-consistent Calculation

     iteration #  1     ecut=    50.00 Ry     beta= 0.40
     Davidson diagonalization with overlap

---- Real-time Memory Report at c_bands before calling an iterative solver
           354 MiB given to the printing process from OS
           162 MiB allocation reported by mallinfo(arena+hblkhd)
          1110 MiB available memory on the node where the printing process lives
------------------
     c_bands:  1 eigenvalues not converged
     c_bands:  1 eigenvalues not converged
     c_bands:  2 eigenvalues not converged
     c_bands:  2 eigenvalues not converged
     c_bands:  2 eigenvalues not converged
     c_bands:  2 eigenvalues not converged
     c_bands:  2 eigenvalues not converged
     c_bands:  2 eigenvalues not converged
     c_bands:  2 eigenvalues not converged
     c_bands:  2 eigenvalues not converged
     c_bands:  2 eigenvalues not converged
     c_bands:  2 eigenvalues not converged
     c_bands:  2 eigenvalues not converged
     c_bands:  2 eigenvalues not converged
     c_bands:  2 eigenvalues not converged
     c_bands:  2 eigenvalues not converged
     c_bands:  1 eigenvalues not converged
     c_bands:  2 eigenvalues not converged
     c_bands:  2 eigenvalues not converged
     c_bands:  2 eigenvalues not converged
     c_bands:  2 eigenvalues not converged
     c_bands:  2 eigenvalues not converged
     c_bands:  2 eigenvalues not converged
     c_bands:  2 eigenvalues not converged
     c_bands:  1 eigenvalues not converged
     c_bands:  2 eigenvalues not converged
     c_bands:  1 eigenvalues not converged
     c_bands:  2 eigenvalues not converged
     c_bands:  2 eigenvalues not converged
     ethr =  1.00E-05,  avg # of iterations = 18.6

     total cpu time spent up to now is       37.7 secs

     total energy              =     -85.64348409 Ry
     estimated scf accuracy    <       0.01535044 Ry

     iteration #  2     ecut=    50.00 Ry     beta= 0.40
     Davidson diagonalization with overlap

---- Real-time Memory Report at c_bands before calling an iterative solver
           491 MiB given to the printing process from OS
           182 MiB allocation reported by mallinfo(arena+hblkhd)
          1065 MiB available memory on the node where the printing process lives
------------------
     ethr =  8.53E-05,  avg # of iterations =  1.0

     total cpu time spent up to now is       47.4 secs

     total energy              =     -85.64327893 Ry
     estimated scf accuracy    <       0.00452963 Ry

     iteration #  3     ecut=    50.00 Ry     beta= 0.40
     Davidson diagonalization with overlap

---- Real-time Memory Report at c_bands before calling an iterative solver
           493 MiB given to the printing process from OS
           184 MiB allocation reported by mallinfo(arena+hblkhd)
          1061 MiB available memory on the node where the printing process lives
------------------
     ethr =  2.52E-05,  avg # of iterations =  1.0

     total cpu time spent up to now is       56.9 secs

     total energy              =     -85.64352016 Ry
     estimated scf accuracy    <       0.00018424 Ry

     iteration #  4     ecut=    50.00 Ry     beta= 0.40
     Davidson diagonalization with overlap

---- Real-time Memory Report at c_bands before calling an iterative solver
           495 MiB given to the printing process from OS
           186 MiB allocation reported by mallinfo(arena+hblkhd)
          1057 MiB available memory on the node where the printing process lives
------------------
     ethr =  1.02E-06,  avg # of iterations =  5.4

     total cpu time spent up to now is       70.3 secs

     total energy              =     -85.64358607 Ry
     estimated scf accuracy    <       0.00000679 Ry

     iteration #  5     ecut=    50.00 Ry     beta= 0.40
     Davidson diagonalization with overlap

---- Real-time Memory Report at c_bands before calling an iterative solver
           497 MiB given to the printing process from OS
           188 MiB allocation reported by mallinfo(arena+hblkhd)
          1053 MiB available memory on the node where the printing process lives
------------------
     ethr =  3.77E-08,  avg # of iterations =  4.0

     total cpu time spent up to now is       83.7 secs

     total energy              =     -85.64358963 Ry
     estimated scf accuracy    <       0.00000200 Ry

     iteration #  6     ecut=    50.00 Ry     beta= 0.40
     Davidson diagonalization with overlap

---- Real-time Memory Report at c_bands before calling an iterative solver
           499 MiB given to the printing process from OS
           190 MiB allocation reported by mallinfo(arena+hblkhd)
          1049 MiB available memory on the node where the printing process lives
------------------
     ethr =  1.11E-08,  avg # of iterations =  2.1

     total cpu time spent up to now is       94.7 secs

     total energy              =     -85.64358990 Ry
     estimated scf accuracy    <       0.00000011 Ry

     iteration #  7     ecut=    50.00 Ry     beta= 0.40
     Davidson diagonalization with overlap

---- Real-time Memory Report at c_bands before calling an iterative solver
           501 MiB given to the printing process from OS
           192 MiB allocation reported by mallinfo(arena+hblkhd)
          1045 MiB available memory on the node where the printing process lives
------------------
     ethr =  5.99E-10,  avg # of iterations =  2.8

     total cpu time spent up to now is      106.2 secs

     total energy              =     -85.64358993 Ry
     estimated scf accuracy    <       0.00000002 Ry

     iteration #  8     ecut=    50.00 Ry     beta= 0.40
     Davidson diagonalization with overlap

---- Real-time Memory Report at c_bands before calling an iterative solver
           503 MiB given to the printing process from OS
           194 MiB allocation reported by mallinfo(arena+hblkhd)
          1041 MiB available memory on the node where the printing process lives
------------------
     ethr =  1.05E-10,  avg # of iterations =  2.7

     total cpu time spent up to now is      117.4 secs

     End of self-consistent calculation

          k = 0.0000 0.0000 0.0000 (  4141 PWs)   bands (ev):

    -7.6757  -7.6757  -4.3269  -4.3269  -4.3255  -4.3255   2.6964   2.6964
     2.9066   2.9066   3.3395   3.3395   4.2960   4.2960   4.3385   4.3385
     5.2086   5.2086   6.6472   6.6472   7.2691   7.2691   7.7642   7.7642
    10.9649  10.9655

     occupation numbers 
     1.0000   1.0000   1.0000   1.0000   1.0000   1.0000   1.0000   1.0000
     1.0000   1.0000   1.0000   1.0000   1.0000   1.0000   1.0000   1.0000
     1.0000   1.0000   0.0000   0.0000   0.0000   0.0000   0.0000   0.0000
     0.0000   0.0000

          k = 0.0000 0.0000 0.1263 (  4159 PWs)   bands (ev):

    -7.5745  -7.5733  -5.2683  -5.2652  -3.3591  -3.3576   2.4966   2.5054
     2.8690   3.0602   3.1414   3.5873   4.2611   4.3486   4.4342   4.4866
     5.1235   5.2289   6.5172   6.5502   7.0332   7.1166   7.4792   7.4968
    10.6488  10.6867

     occupation numbers 
     1.0000   1.0000   1.0000   1.0000   1.0000   1.0000   1.0000   1.0000
     1.0000   1.0000   1.0000   1.0000   1.0000   1.0000   1.0000   1.0000
     1.0000   1.0000   0.0001   0.0000   0.0000   0.0000   0.0000   0.0000
     0.0000   0.0000

          k = 0.0000 0.0000 0.2526 (  4129 PWs)   bands (ev):

    -7.2720  -7.2697  -6.0992  -6.0957  -2.5352  -2.5316   2.0492   2.0912
     3.0283   3.1217   3.1957   3.6085   4.3843   4.5082   4.5385   4.7594
     4.9624   5.1766   6.3776   6.4060   6.6593   6.8307   6.9366   7.0167
    10.2122  10.2300

     occupation numbers 
     1.0000   1.0000   1.0000   1.0000   1.0000   1.0000   1.0000   1.0000
     1.0000   1.0000   1.0000   1.0000   1.0000   1.0000   1.0000   1.0000
     1.0000   1.0000   0.0125   0.0056   0.0000   0.0000   0.0000   0.0000
     0.0000   0.0000

          k = 0.0000 0.0000-0.3790 (  4130 PWs)   bands (ev):

    -6.7754  -6.7754  -6.7723  -6.7723  -2.1769  -2.1769   1.8355   1.8355
     3.1259   3.1259   3.4099   3.4099   4.5278   4.5278   4.7419   4.7419
     5.0182   5.0182   6.4265   6.4265   6.5100   6.5100   6.7455   6.7455
    10.0334  10.0334

     occupation numbers 
     1.0000   1.0000   1.0000   1.0000   1.0000   1.0000   1.0000   1.0000
     1.0000   1.0000   1.0000   1.0000   1.0000   1.0000   1.0000   1.0000
     1.0000   1.0000   0.0030   0.0030   0.0001   0.0001   0.0000   0.0000
     0.0000   0.0000

          k = 0.0000 0.1925 0.0000 (  4129 PWs)   bands (ev):

    -7.4973  -7.4970  -4.3971  -4.3914  -4.2781  -4.2739   1.7226   1.8200
     2.2875   2.4385   2.7683   3.0074   4.5216   4.6939   4.9062   4.9924
     5.1819   5.2943   6.7434   6.8269   6.9857   7.0728   7.5222   7.6252
    10.3882  10.4291

     occupation numbers 
     1.0000   1.0000   1.0000   1.0000   1.0000   1.0000   1.0000   1.0000
     1.0000   1.0000   1.0000   1.0000   1.0000   1.0000   1.0000   1.0000
     1.0000   1.0000   0.0000   0.0000   0.0000   0.0000   0.0000   0.0000
     0.0000   0.0000

          k = 0.0000 0.1925 0.1263 (  4135 PWs)   bands (ev):

    -7.3975  -7.3960  -5.2120  -5.2087  -3.4642  -3.4614   1.8160   1.8899
     1.9950   2.1294   2.8648   3.0563   4.6265   4.7596   4.9340   5.1320
     5.3342   5.4268   6.5981   6.6285   6.7625   6.9013   7.3989   7.4581
     9.9785   9.9877

     occupation numbers 
     1.0000   1.0000   1.0000   1.0000   1.0000   1.0000   1.0000   1.0000
     1.0000   1.0000   1.0000   1.0000   1.0000   1.0000   1.0000   1.0000
     1.0000   1.0000   0.0000   0.0000   0.0000   0.0000   0.0000   0.0000
     0.0000   0.0000

          k = 0.0000 0.1925 0.2526 (  4127 PWs)   bands (ev):

    -7.1024  -7.0996  -5.9874  -5.9833  -2.8057  -2.8012   1.6899   1.7876
     2.1558   2.3391   2.9690   3.1510   4.4365   4.5041   4.6524   4.7469
     4.9151   5.0098   6.6308   6.7440   6.9465   7.1033   7.6751   7.6877
    10.0078  10.0342

     occupation numbers 
     1.0000   1.0000   1.0000   1.0000   1.0000   1.0000   1.0000   1.0000
     1.0000   1.0000   1.0000   1.0000   1.0000   1.0000   1.0000   1.0000
     1.0000   1.0000   0.0000   0.0000   0.0000   0.0000   0.0000   0.0000
     0.0000   0.0000

          k = 0.0000 0.1925-0.3790 (  4106 PWs)   bands (ev):

    -6.6439  -6.6421  -6.6052  -6.6038  -2.5659  -2.5651   1.6636   1.7480
     2.6133   2.8610   2.9266   3.0934   3.9192   4.1438   4.2396   4.3902
     4.5894   4.7873   6.7607   6.9102   7.3133   7.4562   7.8660   7.8705
    10.4412  10.4629

     occupation numbers 
     1.0000   1.0000   1.0000   1.0000   1.0000   1.0000   1.0000   1.0000
     1.0000   1.0000   1.0000   1.0000   1.0000   1.0000   1.0000   1.0000
     1.0000   1.0000   0.0000   0.0000   0.0000   0.0000   0.0000   0.0000
     0.0000   0.0000

          k = 0.0000 0.3849 0.0000 (  4116 PWs)   bands (ev):

    -7.0353  -7.0347  -4.7138  -4.7083  -4.1653  -4.1614   1.0404   1.0972
     1.6139   1.7811   2.2958   2.5148   3.5175   3.5935   4.8156   4.9670
     5.0523   5.1991   6.8653   6.9681   7.0891   7.1290   8.7746   8.7904
     9.3732   9.4027

     occupation numbers 
     1.0000   1.0000   1.0000   1.0000   1.0000   1.0000   1.0000   1.0000
     1.0000   1.0000   1.0000   1.0000   1.0000   1.0000   1.0000   1.0000
     1.0000   1.0000   0.0000   0.0000   0.0000   0.0000   0.0000   0.0000
     0.0000   0.0000

          k = 0.0000 0.3849 0.1263 (  4118 PWs)   bands (ev):

    -6.9383  -6.9357  -5.1904  -5.1859  -3.7326  -3.7261   0.8801   0.9087
     1.3780   1.4807   2.4119   2.5531   4.2255   4.4822   4.6953   4.9734
     4.9958   5.2036   6.7956   6.8484   7.2683   7.3784   7.9055   7.9318
     9.3026   9.3637

     occupation numbers 
     1.0000   1.0000   1.0000   1.0000   1.0000   1.0000   1.0000   1.0000
     1.0000   1.0000   1.0000   1.0000   1.0000   1.0000   1.0000   1.0000
     1.0000   1.0000   0.0000   0.0000   0.0000   0.0000   0.0000   0.0000
     0.0000   0.0000

          k = 0.0000 0.3849 0.2526 (  4122 PWs)   bands (ev):

    -6.6680  -6.6630  -5.7626  -5.7562  -3.4296  -3.4231   0.7118   0.7563
     1.6170   1.7377   2.5595   2.6745   3.9461   4.1102   4.3275   4.4334
     5.7816   5.8344   6.6778   6.7539   7.3074   7.4428   7.7725   8.1194
     9.7883   9.9239

     occupation numbers 
     1.0000   1.0000   1.0000   1.0000   1.0000   1.0000   1.0000   1.0000
     1.0000   1.0000   1.0000   1.0000   1.0000   1.0000   1.0000   1.0000
     1.0000   0.9997   0.0000   0.0000   0.0000   0.0000   0.0000   0.0000
     0.0000   0.0000

          k = 0.0000 0.3849-0.3790 (  4112 PWs)   bands (ev):

    -6.3486  -6.3467  -6.1640  -6.1619  -3.3972  -3.3957   0.8026   0.8441
     2.1159   2.2409   2.4615   2.5741   3.6947   3.7586   3.9975   4.0720
     4.9726   5.0649   7.2289   7.4359   7.8978   8.0095   8.2631   8.4799
    10.4694  10.6173

     occupation numbers 
     1.0000   1.0000   1.0000   1.0000   1.0000   1.0000   1.0000   1.0000
     1.0000   1.0000   1.0000   1.0000   1.0000   1.0000   1.0000   1.0000
     1.0000   1.0000   0.0000   0.0000   0.0000   0.0000   0.0000   0.0000
     0.0000   0.0000

          k = 0.0000-0.5774 0.0000 (  4090 PWs)   bands (ev):

    -6.6895  -6.6895  -5.0284  -5.0284  -4.1007  -4.1007   1.0226   1.0226
     1.5113   1.5113   2.3422   2.3422   2.5556   2.5556   4.8097   4.8097
     5.0964   5.0964   6.9185   6.9185   7.0311   7.0311   8.9981   8.9981
     9.7407   9.7407

     occupation numbers 
     1.0000   1.0000   1.0000   1.0000   1.0000   1.0000   1.0000   1.0000
     1.0000   1.0000   1.0000   1.0000   1.0000   1.0000   1.0000   1.0000
     1.0000   1.0000   0.0000   0.0000   0.0000   0.0000   0.0000   0.0000
     0.0000   0.0000

          k = 0.0000-0.5774 0.1263 (  4092 PWs)   bands (ev):

    -6.6141  -6.6103  -5.1918  -5.1875  -4.0484  -4.0402   0.9732   1.0133
     1.1842   1.2978   2.2546   2.4130   3.1978   3.3804   4.4469   4.6188
     4.7661   4.8513   6.9078   6.9559   7.4855   7.7149   9.1935   9.2147
     9.3597   9.4719

     occupation numbers 
     1.0000   1.0000   1.0000   1.0000   1.0000   1.0000   1.0000   1.0000
     1.0000   1.0000   1.0000   1.0000   1.0000   1.0000   1.0000   1.0000
     1.0000   1.0000   0.0000   0.0000   0.0000   0.0000   0.0000   0.0000
     0.0000   0.0000

          k = 0.0000-0.5774 0.2526 (  4102 PWs)   bands (ev):

    -6.3991  -6.3924  -5.5524  -5.5445  -3.9530  -3.9457   0.4549   0.4858
     1.6202   1.7298   2.3669   2.4803   3.6077   3.8856   4.0612   4.2611
     4.7831   4.9717   7.2688   7.3734   7.9041   7.9760   8.2672   8.5992
    10.0944  10.3122

     occupation numbers 
     1.0000   1.0000   1.0000   1.0000   1.0000   1.0000   1.0000   1.0000
     1.0000   1.0000   1.0000   1.0000   1.0000   1.0000   1.0000   1.0000
     1.0000   1.0000   0.0000   0.0000   0.0000   0.0000   0.0000   0.0000
     0.0000   0.0000

          k = 0.0000-0.5774-0.3790 (  4096 PWs)   bands (ev):

    -6.1778  -6.1778  -5.8294  -5.8294  -3.9061  -3.9061   0.2681   0.2681
     2.1377   2.1377   2.2645   2.2645   3.5564   3.5564   3.9270   3.9270
     5.8130   5.8130   6.7872   6.7872   7.8141   7.8141   8.6468   8.6468
    10.5753  10.5753

     occupation numbers 
     1.0000   1.0000   1.0000   1.0000   1.0000   1.0000   1.0000   1.0000
     1.0000   1.0000   1.0000   1.0000   1.0000   1.0000   1.0000   1.0000
     0.9999   0.9999   0.0000   0.0000   0.0000   0.0000   0.0000   0.0000
     0.0000   0.0000

          k = 0.1667 0.0962 0.0000 (  4129 PWs)   bands (ev):

    -7.4973  -7.4970  -4.3972  -4.3914  -4.2781  -4.2739   1.7226   1.8200
     2.2875   2.4385   2.7683   3.0074   4.5216   4.6939   4.9062   4.9923
     5.1819   5.2942   6.7434   6.8269   6.9857   7.0728   7.5223   7.6252
    10.3882  10.4291

     occupation numbers 
     1.0000   1.0000   1.0000   1.0000   1.0000   1.0000   1.0000   1.0000
     1.0000   1.0000   1.0000   1.0000   1.0000   1.0000   1.0000   1.0000
     1.0000   1.0000   0.0000   0.0000   0.0000   0.0000   0.0000   0.0000
     0.0000   0.0000

          k = 0.1667 0.0962 0.1263 (  4135 PWs)   bands (ev):

    -7.4001  -7.3986  -5.1842  -5.1809  -3.5219  -3.5190   1.7967   1.8868
     2.4992   2.6905   2.7794   3.1361   4.2327   4.2878   4.3782   4.5581
     4.7983   4.9872   6.9916   7.0950   7.3684   7.4936   7.7652   7.8674
    10.6700  10.7108

     occupation numbers 
     1.0000   1.0000   1.0000   1.0000   1.0000   1.0000   1.0000   1.0000
     1.0000   1.0000   1.0000   1.0000   1.0000   1.0000   1.0000   1.0000
     1.0000   1.0000   0.0000   0.0000   0.0000   0.0000   0.0000   0.0000
     0.0000   0.0000

          k = 0.1667 0.0962 0.2526 (  4127 PWs)   bands (ev):

    -7.1082  -7.1055  -5.9701  -5.9661  -2.8568  -2.8523   1.8196   1.8901
     2.6188   2.7819   3.0373   3.2812   3.7281   3.9511   4.1483   4.2378
     4.6229   4.7719   7.0088   7.0530   7.6229   7.7118   7.7783   7.8415
    10.6156  10.6331

     occupation numbers 
     1.0000   1.0000   1.0000   1.0000   1.0000   1.0000   1.0000   1.0000
     1.0000   1.0000   1.0000   1.0000   1.0000   1.0000   1.0000   1.0000
     1.0000   1.0000   0.0000   0.0000   0.0000   0.0000   0.0000   0.0000
     0.0000   0.0000

          k = 0.1667 0.0962-0.3790 (  4106 PWs)   bands (ev):

    -6.6439  -6.6421  -6.6052  -6.6037  -2.5659  -2.5651   1.6636   1.7480
     2.6133   2.8610   2.9267   3.0934   3.9192   4.1438   4.2396   4.3902
     4.5894   4.7873   6.7607   6.9102   7.3134   7.4563   7.8660   7.8704
    10.4412  10.4628

     occupation numbers 
     1.0000   1.0000   1.0000   1.0000   1.0000   1.0000   1.0000   1.0000
     1.0000   1.0000   1.0000   1.0000   1.0000   1.0000   1.0000   1.0000
     1.0000   1.0000   0.0000   0.0000   0.0000   0.0000   0.0000   0.0000
     0.0000   0.0000

          k = 0.1667 0.2887 0.0000 (  4125 PWs)   bands (ev):

    -7.1727  -7.1721  -4.5366  -4.5263  -4.2708  -4.2621   1.2259   1.3420
     1.4879   1.5981   2.8370   3.0021   4.0182   4.1746   4.3147   4.3832
     4.7844   4.8325   7.4952   7.5331   7.5826   7.6198   7.9311   7.9469
    10.2398  10.2458

     occupation numbers 
     1.0000   1.0000   1.0000   1.0000   1.0000   1.0000   1.0000   1.0000
     1.0000   1.0000   1.0000   1.0000   1.0000   1.0000   1.0000   1.0000
     1.0000   1.0000   0.0000   0.0000   0.0000   0.0000   0.0000   0.0000
     0.0000   0.0000

          k = 0.1667 0.2887 0.1263 (  4118 PWs)   bands (ev):

    -7.0806  -7.0784  -5.1117  -5.1076  -3.7630  -3.7576   1.2281   1.2913
     1.6606   1.7223   2.7454   2.8844   3.5912   3.6842   4.3500   4.4679
     5.4104   5.4762   6.8815   6.9494   7.6198   7.6653   8.2341   8.2673
    10.2147  10.2455

     occupation numbers 
     1.0000   1.0000   1.0000   1.0000   1.0000   1.0000   1.0000   1.0000
     1.0000   1.0000   1.0000   1.0000   1.0000   1.0000   1.0000   1.0000
     1.0000   1.0000   0.0000   0.0000   0.0000   0.0000   0.0000   0.0000
     0.0000   0.0000

          k = 0.1667 0.2887 0.2526 (  4105 PWs)   bands (ev):

    -6.8077  -6.8037  -5.7810  -5.7757  -3.3229  -3.3169   1.2379   1.3309
     1.7495   1.8849   2.5849   2.6992   3.2955   3.4762   4.8019   4.9265
     5.1682   5.2816   6.8110   6.8634   7.6326   7.6455   8.4220   8.4770
    10.4051  10.4260

     occupation numbers 
     1.0000   1.0000   1.0000   1.0000   1.0000   1.0000   1.0000   1.0000
     1.0000   1.0000   1.0000   1.0000   1.0000   1.0000   1.0000   1.0000
     1.0000   1.0000   0.0000   0.0000   0.0000   0.0000   0.0000   0.0000
     0.0000   0.0000

          k = 0.1667 0.2887-0.3790 (  4108 PWs)   bands (ev):

    -6.4114  -6.4083  -6.3145  -6.3115  -3.1568  -3.1552   1.2183   1.3159
     2.0351   2.0453   2.1609   2.2651   3.8729   4.0338   4.4374   4.4717
     5.1066   5.1923   6.7115   6.7908   8.0952   8.1119   8.3051   8.3268
    10.6112  10.6527

     occupation numbers 
     1.0000   1.0000   1.0000   1.0000   1.0000   1.0000   1.0000   1.0000
     1.0000   1.0000   1.0000   1.0000   1.0000   1.0000   1.0000   1.0000
     1.0000   1.0000   0.0000   0.0000   0.0000   0.0000   0.0000   0.0000
     0.0000   0.0000

          k = 0.1667 0.4811 0.0000 (  4125 PWs)   bands (ev):

    -6.7151  -6.7143  -4.8466  -4.8404  -4.2927  -4.2872   1.0900   1.1635
     1.3576   1.4676   2.4277   2.6251   2.9395   3.0601   3.9623   4.0516
     4.2088   4.2496   7.7346   7.7721   8.0892   8.1028   9.2279   9.2381
     9.8490   9.8671

     occupation numbers 
     1.0000   1.0000   1.0000   1.0000   1.0000   1.0000   1.0000   1.0000
     1.0000   1.0000   1.0000   1.0000   1.0000   1.0000   1.0000   1.0000
     1.0000   1.0000   0.0000   0.0000   0.0000   0.0000   0.0000   0.0000
     0.0000   0.0000

          k = 0.1667 0.4811 0.1263 (  4110 PWs)   bands (ev):

    -6.6307  -6.6269  -5.1486  -5.1432  -4.0645  -4.0556   0.8162   0.8493
     1.3231   1.4274   2.3439   2.4760   3.1637   3.3318   4.0455   4.1801
     4.8537   4.9775   7.2943   7.3566   8.3234   8.3542   8.4821   8.5475
     9.9968  10.0522

     occupation numbers 
     1.0000   1.0000   1.0000   1.0000   1.0000   1.0000   1.0000   1.0000
     1.0000   1.0000   1.0000   1.0000   1.0000   1.0000   1.0000   1.0000
     1.0000   1.0000   0.0000   0.0000   0.0000   0.0000   0.0000   0.0000
     0.0000   0.0000

          k = 0.1667 0.4811 0.2526 (  4108 PWs)   bands (ev):

    -6.3948  -6.3878  -5.5931  -5.5847  -3.8652  -3.8573   0.5481   0.5912
     1.2933   1.3689   2.0788   2.1520   3.4184   3.5450   4.9690   5.1749
     5.5466   5.7986   6.6875   6.7458   7.4410   7.5111   8.4987   8.6136
    10.3246  10.4040

     occupation numbers 
     1.0000   1.0000   1.0000   1.0000   1.0000   1.0000   1.0000   1.0000
     1.0000   1.0000   1.0000   1.0000   1.0000   1.0000   1.0000   1.0000
     1.0000   0.9999   0.0000   0.0000   0.0000   0.0000   0.0000   0.0000
     0.0000   0.0000

          k = 0.1667 0.4811-0.3790 (  4102 PWs)   bands (ev):

    -6.1297  -6.1274  -5.9167  -5.9137  -3.8197  -3.8180   0.5341   0.5618
     1.4688   1.4967   1.6117   1.6932   4.2614   4.3642   4.7462   4.7847
     5.5710   5.6414   6.8890   6.9936   7.5632   7.6282   8.1802   8.2293
    10.8070  10.8434

     occupation numbers 
     1.0000   1.0000   1.0000   1.0000   1.0000   1.0000   1.0000   1.0000
     1.0000   1.0000   1.0000   1.0000   1.0000   1.0000   1.0000   1.0000
     1.0000   1.0000   0.0000   0.0000   0.0000   0.0000   0.0000   0.0000
     0.0000   0.0000

          k = 0.3333 0.1925 0.0000 (  4116 PWs)   bands (ev):

    -7.0354  -7.0347  -4.7138  -4.7083  -4.1653  -4.1614   1.0404   1.0972
     1.6139   1.7811   2.2958   2.5148   3.5175   3.5935   4.8157   4.9670
     5.0524   5.1991   6.8653   6.9681   7.0892   7.1291   8.7746   8.7904
     9.3733   9.4027

     occupation numbers 
     1.0000   1.0000   1.0000   1.0000   1.0000   1.0000   1.0000   1.0000
     1.0000   1.0000   1.0000   1.0000   1.0000   1.0000   1.0000   1.0000
     1.0000   1.0000   0.0000   0.0000   0.0000   0.0000   0.0000   0.0000
     0.0000   0.0000

          k = 0.3333 0.1925 0.1263 (  4118 PWs)   bands (ev):

    -6.9555  -6.9531  -5.0301  -5.0262  -3.9859  -3.9796   1.3139   1.4295
     1.7943   1.9169   2.5284   2.7570   2.7970   3.0230   4.3470   4.6024
     4.7876   4.9552   6.9894   7.0973   7.6700   7.9160   9.1748   9.1878
     9.9677  10.0824

     occupation numbers 
     1.0000   1.0000   1.0000   1.0000   1.0000   1.0000   1.0000   1.0000
     1.0000   1.0000   1.0000   1.0000   1.0000   1.0000   1.0000   1.0000
     1.0000   1.0000   0.0000   0.0000   0.0000   0.0000   0.0000   0.0000
     0.0000   0.0000

          k = 0.3333 0.1925 0.2526 (  4122 PWs)   bands (ev):

    -6.7055  -6.7013  -5.6518  -5.6464  -3.6167  -3.6104   1.1831   1.2579
     1.9399   2.0980   2.5334   2.6741   3.3009   3.6605   3.9077   4.0648
     4.4038   4.6259   7.4041   7.4653   8.2157   8.3829   8.8752   8.8889
    10.5995  10.7110

     occupation numbers 
     1.0000   1.0000   1.0000   1.0000   1.0000   1.0000   1.0000   1.0000
     1.0000   1.0000   1.0000   1.0000   1.0000   1.0000   1.0000   1.0000
     1.0000   1.0000   0.0000   0.0000   0.0000   0.0000   0.0000   0.0000
     0.0000   0.0000

          k = 0.3333 0.1925-0.3790 (  4112 PWs)   bands (ev):

    -6.3487  -6.3468  -6.1639  -6.1619  -3.3972  -3.3957   0.8026   0.8441
     2.1159   2.2409   2.4615   2.5741   3.6947   3.7586   3.9975   4.0721
     4.9727   5.0649   7.2289   7.4358   7.8978   8.0095   8.2631   8.4800
    10.4694  10.6173

     occupation numbers 
     1.0000   1.0000   1.0000   1.0000   1.0000   1.0000   1.0000   1.0000
     1.0000   1.0000   1.0000   1.0000   1.0000   1.0000   1.0000   1.0000
     1.0000   1.0000   0.0000   0.0000   0.0000   0.0000   0.0000   0.0000
     0.0000   0.0000

          k = 0.3333 0.3849 0.0000 (  4125 PWs)   bands (ev):

    -6.7151  -6.7143  -4.8466  -4.8404  -4.2927  -4.2872   1.0900   1.1635
     1.3576   1.4677   2.4277   2.6251   2.9394   3.0600   3.9623   4.0516
     4.2088   4.2497   7.7346   7.7722   8.0892   8.1029   9.2279   9.2380
     9.8491   9.8671

     occupation numbers 
     1.0000   1.0000   1.0000   1.0000   1.0000   1.0000   1.0000   1.0000
     1.0000   1.0000   1.0000   1.0000   1.0000   1.0000   1.0000   1.0000
     1.0000   1.0000   0.0000   0.0000   0.0000   0.0000   0.0000   0.0000
     0.0000   0.0000

          k = 0.3333 0.3849 0.1263 (  4110 PWs)   bands (ev):

    -6.6415  -6.6379  -5.0636  -5.0587  -4.1766  -4.1675   1.0063   1.0571
     1.4108   1.4865   2.3880   2.5549   2.8015   3.1819   3.6356   3.8303
     5.0874   5.1515   7.1562   7.2136   8.2036   8.2586   9.2850   9.3084
    10.1068  10.1634

     occupation numbers 
     1.0000   1.0000   1.0000   1.0000   1.0000   1.0000   1.0000   1.0000
     1.0000   1.0000   1.0000   1.0000   1.0000   1.0000   1.0000   1.0000
     1.0000   1.0000   0.0000   0.0000   0.0000   0.0000   0.0000   0.0000
     0.0000   0.0000

          k = 0.3333 0.3849 0.2526 (  4108 PWs)   bands (ev):

    -6.4179  -6.4116  -5.5271  -5.5197  -3.9466  -3.9388   0.7978   0.8718
     1.1896   1.2563   2.0367   2.1111   3.5366   3.7461   4.4315   4.5725
     5.3402   5.4719   6.9511   6.9771   8.0783   8.1505   8.5878   8.6283
    10.5866  10.6332

     occupation numbers 
     1.0000   1.0000   1.0000   1.0000   1.0000   1.0000   1.0000   1.0000
     1.0000   1.0000   1.0000   1.0000   1.0000   1.0000   1.0000   1.0000
     1.0000   1.0000   0.0000   0.0000   0.0000   0.0000   0.0000   0.0000
     0.0000   0.0000

          k = 0.3333 0.3849-0.3790 (  4102 PWs)   bands (ev):

    -6.1297  -6.1274  -5.9167  -5.9137  -3.8197  -3.8180   0.5341   0.5618
     1.4688   1.4967   1.6117   1.6932   4.2614   4.3642   4.7462   4.7847
     5.5710   5.6414   6.8890   6.9936   7.5631   7.6282   8.1803   8.2293
    10.8070  10.8432

     occupation numbers 
     1.0000   1.0000   1.0000   1.0000   1.0000   1.0000   1.0000   1.0000
     1.0000   1.0000   1.0000   1.0000   1.0000   1.0000   1.0000   1.0000
     1.0000   1.0000   0.0000   0.0000   0.0000   0.0000   0.0000   0.0000
     0.0000   0.0000

          k = 0.3333 0.5774 0.0000 (  4104 PWs)   bands (ev):

    -6.5234  -6.5234  -4.6705  -4.6674  -4.6674  -4.6558   1.2289   1.4177
     1.4177   1.4317   2.7645   2.7645   2.8607   3.0574   3.0574   3.0925
     3.4524   3.4524   8.7268   8.7688   8.9345   8.9345   9.1793   9.1793
    10.8164  10.8164

     occupation numbers 
     1.0000   1.0000   1.0000   1.0000   1.0000   1.0000   1.0000   1.0000
     1.0000   1.0000   1.0000   1.0000   1.0000   1.0000   1.0000   1.0000
     1.0000   1.0000   0.0000   0.0000   0.0000   0.0000   0.0000   0.0000
     0.0000   0.0000

          k = 0.3333 0.5774 0.1263 (  4117 PWs)   bands (ev):

    -6.4501  -6.4454  -5.0633  -5.0595  -4.3361  -4.3259   0.9267   0.9408
     1.3124   1.4796   2.1246   2.2333   2.8586   3.0432   3.8612   3.9038
     4.2445   4.4394   8.2172   8.3741   8.6604   8.7800   8.7934   8.8207
    11.0156  11.0637

     occupation numbers 
     1.0000   1.0000   1.0000   1.0000   1.0000   1.0000   1.0000   1.0000
     1.0000   1.0000   1.0000   1.0000   1.0000   1.0000   1.0000   1.0000
     1.0000   1.0000   0.0000   0.0000   0.0000   0.0000   0.0000   0.0000
     0.0000   0.0000

          k = 0.3333 0.5774 0.2526 (  4122 PWs)   bands (ev):

    -6.2339  -6.2253  -5.4919  -5.4826  -4.0974  -4.0885   0.7365   0.7910
     0.9066   0.9672   1.3866   1.4981   3.9112   4.0428   4.9476   5.1030
     5.2928   5.5860   7.1164   7.2302   7.9000   7.9952   8.1057   8.1307
    11.6550  11.6629

     occupation numbers 
     1.0000   1.0000   1.0000   1.0000   1.0000   1.0000   1.0000   1.0000
     1.0000   1.0000   1.0000   1.0000   1.0000   1.0000   1.0000   1.0000
     1.0000   1.0000   0.0000   0.0000   0.0000   0.0000   0.0000   0.0000
     0.0000   0.0000

          k = 0.3333 0.5774-0.3790 (  4104 PWs)   bands (ev):

    -5.9001  -5.9001  -5.8931  -5.8859  -4.0032  -4.0032   0.7280   0.7280
     0.8763   0.9295   1.0027   1.0027   4.8403   4.8403   5.7991   5.7991
     6.0483   6.1865   6.1988   6.1988   7.3223   7.3855   7.5560   7.5560
    11.8590  11.8590

     occupation numbers 
     1.0000   1.0000   1.0000   1.0000   1.0000   1.0000   1.0000   1.0000
     1.0000   1.0000   1.0000   1.0000   1.0000   1.0000   0.9999   0.9999
     0.8810   0.3990   0.3504   0.3504   0.0000   0.0000   0.0000   0.0000
     0.0000   0.0000

          k = 0.3333 0.0000 0.0000 (  4125 PWs)   bands (ev):

    -7.1727  -7.1721  -4.5366  -4.5263  -4.2708  -4.2622   1.2259   1.3421
     1.4879   1.5981   2.8369   3.0020   4.0182   4.1746   4.3147   4.3832
     4.7844   4.8325   7.4952   7.5332   7.5826   7.6198   7.9311   7.9469
    10.2398  10.2457

     occupation numbers 
     1.0000   1.0000   1.0000   1.0000   1.0000   1.0000   1.0000   1.0000
     1.0000   1.0000   1.0000   1.0000   1.0000   1.0000   1.0000   1.0000
     1.0000   1.0000   0.0000   0.0000   0.0000   0.0000   0.0000   0.0000
     0.0000   0.0000

          k = 0.3333 0.0000 0.1263 (  4118 PWs)   bands (ev):

    -7.0806  -7.0784  -5.1117  -5.1077  -3.7630  -3.7576   1.2282   1.2913
     1.6606   1.7223   2.7454   2.8844   3.5912   3.6842   4.3500   4.4679
     5.4104   5.4762   6.8816   6.9494   7.6199   7.6653   8.2341   8.2674
    10.2148  10.2455

     occupation numbers 
     1.0000   1.0000   1.0000   1.0000   1.0000   1.0000   1.0000   1.0000
     1.0000   1.0000   1.0000   1.0000   1.0000   1.0000   1.0000   1.0000
     1.0000   1.0000   0.0000   0.0000   0.0000   0.0000   0.0000   0.0000
     0.0000   0.0000

          k = 0.3333 0.0000 0.2526 (  4105 PWs)   bands (ev):

    -6.8077  -6.8038  -5.7810  -5.7757  -3.3229  -3.3169   1.2379   1.3309
     1.7495   1.8848   2.5849   2.6992   3.2955   3.4762   4.8019   4.9265
     5.1682   5.2817   6.8110   6.8634   7.6326   7.6455   8.4220   8.4770
    10.4052  10.4259

     occupation numbers 
     1.0000   1.0000   1.0000   1.0000   1.0000   1.0000   1.0000   1.0000
     1.0000   1.0000   1.0000   1.0000   1.0000   1.0000   1.0000   1.0000
     1.0000   1.0000   0.0000   0.0000   0.0000   0.0000   0.0000   0.0000
     0.0000   0.0000

          k = 0.3333 0.0000-0.3790 (  4108 PWs)   bands (ev):

    -6.4114  -6.4084  -6.3145  -6.3114  -3.1568  -3.1552   1.2183   1.3159
     2.0351   2.0453   2.1609   2.2650   3.8730   4.0339   4.4374   4.4717
     5.1066   5.1923   6.7115   6.7908   8.0952   8.1119   8.3051   8.3268
    10.6117  10.6521

     occupation numbers 
     1.0000   1.0000   1.0000   1.0000   1.0000   1.0000   1.0000   1.0000
     1.0000   1.0000   1.0000   1.0000   1.0000   1.0000   1.0000   1.0000
     1.0000   1.0000   0.0000   0.0000   0.0000   0.0000   0.0000   0.0000
     0.0000   0.0000

          k =-0.5000-0.2887 0.0000 (  4090 PWs)   bands (ev):

    -6.6895  -6.6895  -5.0284  -5.0284  -4.1007  -4.1007   1.0225   1.0225
     1.5113   1.5113   2.3422   2.3422   2.5555   2.5555   4.8098   4.8098
     5.0965   5.0965   6.9186   6.9186   7.0312   7.0312   8.9981   8.9981
     9.7407   9.7407

     occupation numbers 
     1.0000   1.0000   1.0000   1.0000   1.0000   1.0000   1.0000   1.0000
     1.0000   1.0000   1.0000   1.0000   1.0000   1.0000   1.0000   1.0000
     1.0000   1.0000   0.0000   0.0000   0.0000   0.0000   0.0000   0.0000
     0.0000   0.0000

          k =-0.5000-0.2887 0.1263 (  4092 PWs)   bands (ev):

    -6.6142  -6.6103  -5.1918  -5.1875  -4.0484  -4.0402   0.9732   1.0133
     1.1842   1.2977   2.2546   2.4130   3.1978   3.3804   4.4470   4.6188
     4.7661   4.8513   6.9079   6.9559   7.4855   7.7150   9.1934   9.2146
     9.3597   9.4719

     occupation numbers 
     1.0000   1.0000   1.0000   1.0000   1.0000   1.0000   1.0000   1.0000
     1.0000   1.0000   1.0000   1.0000   1.0000   1.0000   1.0000   1.0000
     1.0000   1.0000   0.0000   0.0000   0.0000   0.0000   0.0000   0.0000
     0.0000   0.0000

          k =-0.5000-0.2887 0.2526 (  4098 PWs)   bands (ev):

    -6.3991  -6.3924  -5.5524  -5.5445  -3.9530  -3.9457   0.4549   0.4858
     1.6202   1.7298   2.3669   2.4804   3.6077   3.8857   4.0612   4.2611
     4.7831   4.9717   7.2689   7.3734   7.9041   7.9760   8.2672   8.5992
    10.0944  10.3122

     occupation numbers 
     1.0000   1.0000   1.0000   1.0000   1.0000   1.0000   1.0000   1.0000
     1.0000   1.0000   1.0000   1.0000   1.0000   1.0000   1.0000   1.0000
     1.0000   1.0000   0.0000   0.0000   0.0000   0.0000   0.0000   0.0000
     0.0000   0.0000

          k =-0.5000-0.2887-0.3790 (  4096 PWs)   bands (ev):

    -6.1779  -6.1779  -5.8293  -5.8293  -3.9061  -3.9061   0.2681   0.2681
     2.1377   2.1377   2.2645   2.2645   3.5565   3.5565   3.9270   3.9270
     5.8130   5.8130   6.7872   6.7872   7.8141   7.8141   8.6468   8.6468
    10.5753  10.5754

     occupation numbers 
     1.0000   1.0000   1.0000   1.0000   1.0000   1.0000   1.0000   1.0000
     1.0000   1.0000   1.0000   1.0000   1.0000   1.0000   1.0000   1.0000
     0.9999   0.9999   0.0000   0.0000   0.0000   0.0000   0.0000   0.0000
     0.0000   0.0000

          k =-0.5000-0.0962 0.0000 (  4125 PWs)   bands (ev):

    -6.7151  -6.7143  -4.8466  -4.8404  -4.2927  -4.2872   1.0900   1.1635
     1.3576   1.4677   2.4277   2.6251   2.9395   3.0600   3.9623   4.0516
     4.2088   4.2497   7.7346   7.7722   8.0892   8.1029   9.2279   9.2381
     9.8491   9.8671

     occupation numbers 
     1.0000   1.0000   1.0000   1.0000   1.0000   1.0000   1.0000   1.0000
     1.0000   1.0000   1.0000   1.0000   1.0000   1.0000   1.0000   1.0000
     1.0000   1.0000   0.0000   0.0000   0.0000   0.0000   0.0000   0.0000
     0.0000   0.0000

          k =-0.5000-0.0962 0.1263 (  4110 PWs)   bands (ev):

    -6.6308  -6.6270  -5.1486  -5.1433  -4.0645  -4.0556   0.8162   0.8493
     1.3231   1.4274   2.3439   2.4760   3.1637   3.3318   4.0455   4.1801
     4.8537   4.9775   7.2944   7.3566   8.3235   8.3542   8.4821   8.5475
     9.9968  10.0522

     occupation numbers 
     1.0000   1.0000   1.0000   1.0000   1.0000   1.0000   1.0000   1.0000
     1.0000   1.0000   1.0000   1.0000   1.0000   1.0000   1.0000   1.0000
     1.0000   1.0000   0.0000   0.0000   0.0000   0.0000   0.0000   0.0000
     0.0000   0.0000

          k =-0.5000-0.0962 0.2526 (  4108 PWs)   bands (ev):

    -6.3948  -6.3879  -5.5931  -5.5847  -3.8652  -3.8573   0.5481   0.5912
     1.2933   1.3688   2.0788   2.1520   3.4184   3.5450   4.9690   5.1749
     5.5466   5.7986   6.6875   6.7458   7.4410   7.5111   8.4987   8.6136
    10.3247  10.4041

     occupation numbers 
     1.0000   1.0000   1.0000   1.0000   1.0000   1.0000   1.0000   1.0000
     1.0000   1.0000   1.0000   1.0000   1.0000   1.0000   1.0000   1.0000
     1.0000   0.9999   0.0000   0.0000   0.0000   0.0000   0.0000   0.0000
     0.0000   0.0000

          k =-0.5000-0.0962-0.3790 (  4102 PWs)   bands (ev):

    -6.1298  -6.1274  -5.9167  -5.9137  -3.8197  -3.8180   0.5341   0.5618
     1.4688   1.4967   1.6117   1.6932   4.2614   4.3642   4.7462   4.7847
     5.5711   5.6414   6.8890   6.9936   7.5631   7.6282   8.1802   8.2293
    10.8073  10.8434

     occupation numbers 
     1.0000   1.0000   1.0000   1.0000   1.0000   1.0000   1.0000   1.0000
     1.0000   1.0000   1.0000   1.0000   1.0000   1.0000   1.0000   1.0000
     1.0000   1.0000   0.0000   0.0000   0.0000   0.0000   0.0000   0.0000
     0.0000   0.0000

          k = 0.0000 0.1925-0.1263 (  4135 PWs)   bands (ev):

    -7.4001  -7.3986  -5.1842  -5.1809  -3.5218  -3.5189   1.7967   1.8868
     2.4992   2.6905   2.7794   3.1360   4.2327   4.2879   4.3783   4.5581
     4.7983   4.9872   6.9916   7.0950   7.3685   7.4937   7.7651   7.8674
    10.6711  10.7108

     occupation numbers 
     1.0000   1.0000   1.0000   1.0000   1.0000   1.0000   1.0000   1.0000
     1.0000   1.0000   1.0000   1.0000   1.0000   1.0000   1.0000   1.0000
     1.0000   1.0000   0.0000   0.0000   0.0000   0.0000   0.0000   0.0000
     0.0000   0.0000

          k = 0.0000 0.1925-0.2526 (  4127 PWs)   bands (ev):

    -7.1082  -7.1055  -5.9701  -5.9661  -2.8568  -2.8523   1.8195   1.8901
     2.6188   2.7819   3.0373   3.2812   3.7281   3.9511   4.1483   4.2378
     4.6229   4.7719   7.0088   7.0529   7.6229   7.7118   7.7784   7.8415
    10.6157  10.6332

     occupation numbers 
     1.0000   1.0000   1.0000   1.0000   1.0000   1.0000   1.0000   1.0000
     1.0000   1.0000   1.0000   1.0000   1.0000   1.0000   1.0000   1.0000
     1.0000   1.0000   0.0000   0.0000   0.0000   0.0000   0.0000   0.0000
     0.0000   0.0000

          k = 0.0000 0.3849-0.1263 (  4118 PWs)   bands (ev):

    -6.9555  -6.9531  -5.0301  -5.0262  -3.9859  -3.9796   1.3138   1.4295
     1.7942   1.9169   2.5283   2.7570   2.7970   3.0230   4.3469   4.6024
     4.7876   4.9552   6.9894   7.0973   7.6700   7.9159   9.1749   9.1878
     9.9677  10.0824

     occupation numbers 
     1.0000   1.0000   1.0000   1.0000   1.0000   1.0000   1.0000   1.0000
     1.0000   1.0000   1.0000   1.0000   1.0000   1.0000   1.0000   1.0000
     1.0000   1.0000   0.0000   0.0000   0.0000   0.0000   0.0000   0.0000
     0.0000   0.0000

          k = 0.0000 0.3849-0.2526 (  4122 PWs)   bands (ev):

    -6.7055  -6.7013  -5.6518  -5.6464  -3.6167  -3.6104   1.1831   1.2579
     1.9399   2.0979   2.5334   2.6741   3.3009   3.6605   3.9077   4.0648
     4.4038   4.6259   7.4041   7.4653   8.2157   8.3829   8.8752   8.8890
    10.5997  10.7113

     occupation numbers 
     1.0000   1.0000   1.0000   1.0000   1.0000   1.0000   1.0000   1.0000
     1.0000   1.0000   1.0000   1.0000   1.0000   1.0000   1.0000   1.0000
     1.0000   1.0000   0.0000   0.0000   0.0000   0.0000   0.0000   0.0000
     0.0000   0.0000

          k =-0.1667 0.0962-0.1263 (  4135 PWs)   bands (ev):

    -7.3975  -7.3960  -5.2120  -5.2087  -3.4642  -3.4613   1.8160   1.8899
     1.9950   2.1294   2.8648   3.0563   4.6266   4.7597   4.9340   5.1321
     5.3342   5.4268   6.5982   6.6285   6.7625   6.9013   7.3989   7.4580
     9.9785   9.9877

     occupation numbers 
     1.0000   1.0000   1.0000   1.0000   1.0000   1.0000   1.0000   1.0000
     1.0000   1.0000   1.0000   1.0000   1.0000   1.0000   1.0000   1.0000
     1.0000   1.0000   0.0000   0.0000   0.0000   0.0000   0.0000   0.0000
     0.0000   0.0000

          k =-0.1667 0.0962-0.2526 (  4127 PWs)   bands (ev):

    -7.1024  -7.0996  -5.9874  -5.9833  -2.8057  -2.8012   1.6899   1.7876
     2.1557   2.3391   2.9690   3.1510   4.4365   4.5042   4.6524   4.7470
     4.9151   5.0098   6.6308   6.7441   6.9465   7.1034   7.6750   7.6877
    10.0078  10.0343

     occupation numbers 
     1.0000   1.0000   1.0000   1.0000   1.0000   1.0000   1.0000   1.0000
     1.0000   1.0000   1.0000   1.0000   1.0000   1.0000   1.0000   1.0000
     1.0000   1.0000   0.0000   0.0000   0.0000   0.0000   0.0000   0.0000
     0.0000   0.0000

          k =-0.1667 0.2887-0.1263 (  4118 PWs)   bands (ev):

    -7.0806  -7.0784  -5.1117  -5.1077  -3.7630  -3.7576   1.2281   1.2913
     1.6606   1.7223   2.7454   2.8844   3.5913   3.6843   4.3499   4.4678
     5.4104   5.4762   6.8815   6.9494   7.6198   7.6653   8.2341   8.2674
    10.2149  10.2455

     occupation numbers 
     1.0000   1.0000   1.0000   1.0000   1.0000   1.0000   1.0000   1.0000
     1.0000   1.0000   1.0000   1.0000   1.0000   1.0000   1.0000   1.0000
     1.0000   1.0000   0.0000   0.0000   0.0000   0.0000   0.0000   0.0000
     0.0000   0.0000

          k =-0.1667 0.2887-0.2526 (  4105 PWs)   bands (ev):

    -6.8077  -6.8037  -5.7810  -5.7757  -3.3229  -3.3169   1.2379   1.3308
     1.7495   1.8848   2.5849   2.6992   3.2955   3.4762   4.8019   4.9265
     5.1681   5.2816   6.8110   6.8634   7.6326   7.6455   8.4221   8.4771
    10.4052  10.4260

     occupation numbers 
     1.0000   1.0000   1.0000   1.0000   1.0000   1.0000   1.0000   1.0000
     1.0000   1.0000   1.0000   1.0000   1.0000   1.0000   1.0000   1.0000
     1.0000   1.0000   0.0000   0.0000   0.0000   0.0000   0.0000   0.0000
     0.0000   0.0000

          k =-0.1667 0.4811-0.1263 (  4110 PWs)   bands (ev):

    -6.6415  -6.6379  -5.0636  -5.0587  -4.1766  -4.1675   1.0063   1.0571
     1.4108   1.4865   2.3880   2.5549   2.8015   3.1819   3.6356   3.8303
     5.0873   5.1515   7.1562   7.2136   8.2036   8.2586   9.2850   9.3085
    10.1068  10.1634

     occupation numbers 
     1.0000   1.0000   1.0000   1.0000   1.0000   1.0000   1.0000   1.0000
     1.0000   1.0000   1.0000   1.0000   1.0000   1.0000   1.0000   1.0000
     1.0000   1.0000   0.0000   0.0000   0.0000   0.0000   0.0000   0.0000
     0.0000   0.0000

          k =-0.1667 0.4811-0.2526 (  4108 PWs)   bands (ev):

    -6.4178  -6.4115  -5.5272  -5.5197  -3.9466  -3.9388   0.7978   0.8718
     1.1896   1.2563   2.0367   2.1111   3.5366   3.7461   4.4314   4.5725
     5.3401   5.4719   6.9511   6.9771   8.0783   8.1505   8.5878   8.6283
    10.5866  10.6332

     occupation numbers 
     1.0000   1.0000   1.0000   1.0000   1.0000   1.0000   1.0000   1.0000
     1.0000   1.0000   1.0000   1.0000   1.0000   1.0000   1.0000   1.0000
     1.0000   1.0000   0.0000   0.0000   0.0000   0.0000   0.0000   0.0000
     0.0000   0.0000

          k =-0.3333 0.1925-0.1263 (  4118 PWs)   bands (ev):

    -6.9383  -6.9357  -5.1904  -5.1859  -3.7326  -3.7261   0.8801   0.9088
     1.3780   1.4807   2.4119   2.5531   4.2255   4.4822   4.6954   4.9735
     4.9958   5.2035   6.7956   6.8484   7.2683   7.3785   7.9054   7.9318
     9.3026   9.3637

     occupation numbers 
     1.0000   1.0000   1.0000   1.0000   1.0000   1.0000   1.0000   1.0000
     1.0000   1.0000   1.0000   1.0000   1.0000   1.0000   1.0000   1.0000
     1.0000   1.0000   0.0000   0.0000   0.0000   0.0000   0.0000   0.0000
     0.0000   0.0000

          k =-0.3333 0.1925-0.2526 (  4122 PWs)   bands (ev):

    -6.6680  -6.6631  -5.7626  -5.7562  -3.4296  -3.4231   0.7118   0.7563
     1.6170   1.7377   2.5596   2.6746   3.9462   4.1103   4.3275   4.4335
     5.7815   5.8344   6.6778   6.7539   7.3074   7.4428   7.7726   8.1194
     9.7883   9.9239

     occupation numbers 
     1.0000   1.0000   1.0000   1.0000   1.0000   1.0000   1.0000   1.0000
     1.0000   1.0000   1.0000   1.0000   1.0000   1.0000   1.0000   1.0000
     1.0000   0.9997   0.0000   0.0000   0.0000   0.0000   0.0000   0.0000
     0.0000   0.0000

          k =-0.3333 0.3849-0.1263 (  4110 PWs)   bands (ev):

    -6.6308  -6.6270  -5.1486  -5.1433  -4.0645  -4.0556   0.8162   0.8493
     1.3231   1.4274   2.3439   2.4760   3.1638   3.3318   4.0454   4.1801
     4.8537   4.9775   7.2943   7.3566   8.3235   8.3542   8.4821   8.5475
     9.9968  10.0522

     occupation numbers 
     1.0000   1.0000   1.0000   1.0000   1.0000   1.0000   1.0000   1.0000
     1.0000   1.0000   1.0000   1.0000   1.0000   1.0000   1.0000   1.0000
     1.0000   1.0000   0.0000   0.0000   0.0000   0.0000   0.0000   0.0000
     0.0000   0.0000

          k =-0.3333 0.3849-0.2526 (  4108 PWs)   bands (ev):

    -6.3948  -6.3878  -5.5931  -5.5847  -3.8652  -3.8573   0.5481   0.5912
     1.2933   1.3689   2.0788   2.1520   3.4184   3.5450   4.9690   5.1749
     5.5466   5.7986   6.6875   6.7458   7.4410   7.5111   8.4987   8.6136
    10.3247  10.4041

     occupation numbers 
     1.0000   1.0000   1.0000   1.0000   1.0000   1.0000   1.0000   1.0000
     1.0000   1.0000   1.0000   1.0000   1.0000   1.0000   1.0000   1.0000
     1.0000   0.9999   0.0000   0.0000   0.0000   0.0000   0.0000   0.0000
     0.0000   0.0000

          k = 0.5000-0.0962-0.1263 (  4110 PWs)   bands (ev):

    -6.6415  -6.6379  -5.0636  -5.0587  -4.1766  -4.1675   1.0063   1.0571
     1.4108   1.4865   2.3880   2.5549   2.8015   3.1819   3.6356   3.8303
     5.0873   5.1515   7.1562   7.2136   8.2037   8.2587   9.2850   9.3085
    10.1068  10.1634

     occupation numbers 
     1.0000   1.0000   1.0000   1.0000   1.0000   1.0000   1.0000   1.0000
     1.0000   1.0000   1.0000   1.0000   1.0000   1.0000   1.0000   1.0000
     1.0000   1.0000   0.0000   0.0000   0.0000   0.0000   0.0000   0.0000
     0.0000   0.0000

          k = 0.5000-0.0962-0.2526 (  4108 PWs)   bands (ev):

    -6.4179  -6.4116  -5.5271  -5.5197  -3.9466  -3.9388   0.7978   0.8718
     1.1896   1.2563   2.0367   2.1111   3.5366   3.7461   4.4315   4.5725
     5.3401   5.4719   6.9511   6.9771   8.0784   8.1505   8.5878   8.6283
    10.5866  10.6332

     occupation numbers 
     1.0000   1.0000   1.0000   1.0000   1.0000   1.0000   1.0000   1.0000
     1.0000   1.0000   1.0000   1.0000   1.0000   1.0000   1.0000   1.0000
     1.0000   1.0000   0.0000   0.0000   0.0000   0.0000   0.0000   0.0000
     0.0000   0.0000

     the Fermi energy is     6.1618 ev

!    total energy              =     -85.64358993 Ry
     estimated scf accuracy    <          6.5E-09 Ry
     smearing contrib. (-TS)   =      -0.00009120 Ry
     internal energy E=F+TS    =     -85.64349873 Ry

     The total energy is F=E-TS. E is the sum of the following terms:
     one-electron contribution =      10.10798962 Ry
     hartree contribution      =       3.39557985 Ry
     xc contribution           =     -49.70343394 Ry
     ewald contribution        =     -49.44363427 Ry

     convergence has been achieved in   8 iterations


     Computing stress (Cartesian axis) and pressure

          total   stress  (Ry/bohr**3)                   (kbar)     P=       24.65
   0.00014085   0.00000000   0.00000000           20.72        0.00        0.00
   0.00000000   0.00014086  -0.00000001            0.00       20.72       -0.00
   0.00000000  -0.00000001   0.00022096            0.00       -0.00       32.50

     kinetic stress (kbar)   2335.60      0.00      0.00
                                0.00   2335.60      0.00
                                0.00      0.00   2213.74

     local   stress (kbar)    147.43     -0.00     -0.00
                               -0.00    147.40      0.03
                               -0.00      0.03   -570.09

     nonloc. stress (kbar)   2366.39      0.00      0.00
                                0.00   2366.39     -0.00
                                0.00     -0.00   2356.67

     hartree stress (kbar)    183.34     -0.00     -0.00
                               -0.00    183.35     -0.01
                               -0.00     -0.01    358.02

     exc-cor stress (kbar)   6986.83      0.00      0.00
                                0.00   6986.83     -0.00
                                0.00     -0.00   6989.10

     corecor stress (kbar)  -8256.02     -0.00     -0.00
                               -0.00  -8256.02      0.00
                               -0.00      0.00  -8248.02

     ewald   stress (kbar)  -3742.84      0.00      0.00
                                0.00  -3742.82     -0.02
                                0.00     -0.02  -3066.92

     hubbard stress (kbar)      0.00      0.00      0.00
                                0.00      0.00      0.00
                                0.00      0.00      0.00

     DFT-D   stress (kbar)      0.00      0.00      0.00
                                0.00      0.00      0.00
                                0.00      0.00      0.00

     XDM     stress (kbar)      0.00      0.00      0.00
                                0.00      0.00      0.00
                                0.00      0.00      0.00

     dft-nl  stress (kbar)      0.00      0.00      0.00
                                0.00      0.00      0.00
                                0.00      0.00      0.00

     TS-vdW  stress (kbar)      0.00      0.00      0.00
                                0.00      0.00      0.00
                                0.00      0.00      0.00

     MDB     stress (kbar)      0.00      0.00      0.00
                                0.00      0.00      0.00
                                0.00      0.00      0.00

     3D-RISM stress (kbar)      0.00      0.00      0.00
                                0.00      0.00      0.00
                                0.00      0.00      0.00


     Writing all to output data dir /home/user/workspace/qe_runs/strain_pois_m0050/out/tepois_m0050.save/ :
     XML data file, charge density, pseudopotentials, collected wavefunctions

     init_run     :      3.53s CPU      3.79s WALL (       1 calls)
     electrons    :    108.22s CPU    113.50s WALL (       1 calls)
     stress       :      6.17s CPU      6.56s WALL (       1 calls)

     Called by init_run:
     wfcinit      :      2.63s CPU      2.70s WALL (       1 calls)
     wfcinit:atom :      0.03s CPU      0.03s WALL (      68 calls)
     wfcinit:wfcr :      2.50s CPU      2.57s WALL (      68 calls)
     potinit      :      0.17s CPU      0.19s WALL (       1 calls)
     hinit0       :      0.46s CPU      0.47s WALL (       1 calls)

     Called by electrons:
     c_bands      :     91.86s CPU     94.77s WALL (       8 calls)
     sum_band     :     13.93s CPU     15.55s WALL (       8 calls)
     v_of_rho     :      0.24s CPU      0.24s WALL (       9 calls)
     v_h          :      0.01s CPU      0.01s WALL (       9 calls)
     v_xc         :      0.25s CPU      0.26s WALL (      10 calls)
     newd         :      2.30s CPU      3.18s WALL (       9 calls)
     mix_rho      :      0.10s CPU      0.12s WALL (       8 calls)

     Called by c_bands:
     init_us_2    :      1.11s CPU      1.13s WALL (    1224 calls)
     cegterg      :     78.60s CPU     81.41s WALL (     544 calls)

     Called by sum_band:
     sum_band:wei :      0.01s CPU      0.01s WALL (       8 calls)
     sum_band:loo :     11.86s CPU     12.19s WALL (       8 calls)
     sum_band:buf :      0.17s CPU      0.18s WALL (     544 calls)
     sum_band:ini :      0.48s CPU      0.49s WALL (     544 calls)
     sum_band:cal :      1.08s CPU      1.10s WALL (     544 calls)
     sum_band:bec :      1.27s CPU      1.28s WALL (     544 calls)
     addusdens    :      1.97s CPU      3.26s WALL (       8 calls)
                                        0.00s GPU  (       8 calls)
     addusd:skk   :      0.00s CPU      0.00s WALL (       8 calls)
                                        0.00s GPU  (       8 calls)

     Called by *egterg:
     cdiaghg      :      2.26s CPU      2.30s WALL (    3109 calls)
     cegterg:over :      3.39s CPU      3.46s WALL (    2565 calls)
     cegterg:upda :      1.97s CPU      2.01s WALL (    2565 calls)
     cegterg:last :      3.83s CPU      3.90s WALL (    1536 calls)
     h_psi        :     63.42s CPU     65.90s WALL (    3177 calls)
     s_psi        :      3.57s CPU      3.66s WALL (    3177 calls)
     g_psi        :      0.71s CPU      0.72s WALL (    2565 calls)

     Called by h_psi:
     h_psi:calbec :      4.17s CPU      4.35s WALL (    3177 calls)
     vloc_psi     :     55.24s CPU     57.42s WALL (    3177 calls)
                                        0.00s GPU  (    3177 calls)
     add_vuspsi   :      3.58s CPU      3.67s WALL (    3177 calls)

     General routines
     calbec       :      7.05s CPU      7.27s WALL (    4605 calls)
     fft          :      0.37s CPU      0.38s WALL (     228 calls)
     ffts         :      0.16s CPU      0.16s WALL (      68 calls)
     fftw         :     55.37s CPU     57.49s WALL (  223484 calls)
     interpolate  :      0.18s CPU      0.18s WALL (      36 calls)

     Parallel routines

     PWSCF        :   1m58.12s CPU   2m 4.23s WALL


   This run was terminated on:   8: 9:21  20Aug2026            

=------------------------------------------------------------------------------=
   JOB DONE.
=------------------------------------------------------------------------------=
