
     Program PWSCF v.7.5 starts on 20Aug2026 at  8:14:23 

     This program is part of the open-source Quantum ESPRESSO suite
     for quantum simulation of materials; please cite
         "P. Giannozzi et al., J. Phys.:Condens. Matter 21 395502 (2009);
         "P. Giannozzi et al., J. Phys.:Condens. Matter 29 465901 (2017);
         "P. Giannozzi et al., J. Chem. Phys. 152 154105 (2020);
          URL http://www.quantum-espresso.org", 
     in publications or presentations arising from this work. More details at
     http://www.quantum-espresso.org/quote

     Parallel version (MPI & OpenMP), running on       2 processor cores
     Number of MPI processes:                 2
     Threads/MPI process:                     1

     MPI processes distributed on     1 nodes
     1245 MiB available memory on the printing compute node when the environment starts

     Reading input from strain_pois_p0025/scf.in

     Current dimensions of program PWSCF are:
     Max number of different atomic species (ntypx) = 10
     Max number of k-points (npk) =  40000
     Max angular momentum in pseudopotentials (lmaxx) =  4
     file Te.rel-pbe-n-rrkjus_psl.1.0.0.UPF: wavefunction(s)  5S renormalized
     Message from routine setup:
     using ibrav=0 with symmetry is DISCOURAGED, use correct ibrav instead

     R & G space division:  proc/nbgrp/npool/nimage =       2
     Subspace diagonalization in iterative solution of the eigenvalue problem:
     a serial algorithm will be used


     Parallelization info
     --------------------
     sticks:   dense  smooth     PW     G-vecs:    dense   smooth      PW
     Min         740     483    141                30165    16402    2589
     Max         743     484    142                30166    16403    2592
     Sum        1483     967    283                60331    32805    5181

     Using Slab Decomposition



     bravais-lattice index     =            0
     lattice parameter (alat)  =       8.4097  a.u.
     unit-cell volume          =     687.9429 (a.u.)^3
     number of atoms/cell      =            3
     number of atomic types    =            1
     number of electrons       =        18.00
     number of Kohn-Sham states=           26
     kinetic-energy cutoff     =      50.0000  Ry
     charge density cutoff     =     300.0000  Ry
     scf convergence threshold =      1.0E-08
     mixing beta               =       0.4000
     number of iterations used =            8  plain     mixing
     Exchange-correlation= PBE
                           (   1   4   3   4   0   0   0)
     Non magnetic calculation with spin-orbit


     celldm(1)=   8.409659  celldm(2)=   0.000000  celldm(3)=   0.000000
     celldm(4)=   0.000000  celldm(5)=   0.000000  celldm(6)=   0.000000

     crystal axes: (cart. coord. in units of alat)
               a(1) = (   1.000000   0.000000   0.000000 )  
               a(2) = (  -0.500000   0.866029   0.000000 )  
               a(3) = (   0.000000   0.000000   1.335625 )  

     reciprocal axes: (cart. coord. in units 2 pi/alat)
               b(1) = (  1.000000  0.577348 -0.000000 )  
               b(2) = (  0.000000  1.154696  0.000000 )  
               b(3) = (  0.000000 -0.000000  0.748713 )  


     PseudoPot. # 1 for Te read from file:
     /home/user/workspace/qe_runs/pseudo/Te.rel-pbe-n-rrkjus_psl.1.0.0.UPF
     MD5 check sum: 7fd30b6833abd190471e4dcc2367351b
     Pseudo is Ultrasoft + core correction, Zval =  6.0
     Generated using &quot;atomic&quot; code by A. Dal Corso  v.6.3
     Using radial grid of 1245 points, 10 beta functions with: 
                l(1) =   0
                l(2) =   0
                l(3) =   1
                l(4) =   1
                l(5) =   1
                l(6) =   1
                l(7) =   2
                l(8) =   2
                l(9) =   2
               l(10) =   2
     Q(r) pseudized with 0 coefficients 


     atomic species   valence    mass     pseudopotential
     Te                6.00   127.60000     Te( 1.00)

      2 Sym. Ops. (no inversion) found ( 1 have fractional translation)


                                    s                        frac. trans.

      isym =  1     identity                                     

 cryst.   s( 1) = (     1          0          0      )
                  (     0          1          0      )
                  (     0          0          1      )

 cart.    s( 1) = (  1.0000000  0.0000000  0.0000000 )
                  (  0.0000000  1.0000000  0.0000000 )
                  (  0.0000000  0.0000000  1.0000000 )


      isym =  2     180 deg rotation - cart. axis [1,0,0]        

 cryst.   s( 2) = (     1          0          0      )    f =(  0.0000000 )
                  (    -1         -1          0      )       (  0.0000000 )
                  (     0          0         -1      )       (  0.3333334 )

 cart.    s( 2) = (  1.0000000  0.0000000  0.0000000 )    f =(  0.0000000 )
                  (  0.0000000 -1.0000000  0.0000000 )       (  0.0000000 )
                  (  0.0000000  0.0000000 -1.0000000 )       (  0.4452085 )


   Cartesian axes

     site n.     atom                  positions (alat units)
         1        Te     tau(   1) = (   0.2636000   0.0000000   0.4452084  )
         2        Te     tau(   2) = (  -0.1318000   0.2282853   0.8904170  )
         3        Te     tau(   3) = (  -0.1318000  -0.2282853   0.0000000  )

   Crystallographic axes

     site n.     atom                  positions (cryst. coord.)
         1        Te     tau(   1) = (  0.2636000  0.0000000  0.3333333  )
         2        Te     tau(   2) = (  0.0000000  0.2636000  0.6666667  )
         3        Te     tau(   3) = ( -0.2636000 -0.2636000  0.0000000  )

     number of k points=    68  Gaussian smearing, width (Ry)=  0.0100
                       cart. coord. in units 2pi/alat
        k(    1) = (   0.0000000   0.0000000   0.0000000), wk =   0.0046296
        k(    2) = (   0.0000000   0.0000000   0.1247855), wk =   0.0092593
        k(    3) = (   0.0000000   0.0000000   0.2495710), wk =   0.0092593
        k(    4) = (   0.0000000   0.0000000  -0.3743565), wk =   0.0046296
        k(    5) = (   0.0000000   0.1924493   0.0000000), wk =   0.0092593
        k(    6) = (   0.0000000   0.1924493   0.1247855), wk =   0.0092593
        k(    7) = (   0.0000000   0.1924493   0.2495710), wk =   0.0092593
        k(    8) = (   0.0000000   0.1924493  -0.3743565), wk =   0.0092593
        k(    9) = (   0.0000000   0.3848985   0.0000000), wk =   0.0092593
        k(   10) = (   0.0000000   0.3848985   0.1247855), wk =   0.0092593
        k(   11) = (   0.0000000   0.3848985   0.2495710), wk =   0.0092593
        k(   12) = (   0.0000000   0.3848985  -0.3743565), wk =   0.0092593
        k(   13) = (   0.0000000  -0.5773478   0.0000000), wk =   0.0046296
        k(   14) = (   0.0000000  -0.5773478   0.1247855), wk =   0.0092593
        k(   15) = (   0.0000000  -0.5773478   0.2495710), wk =   0.0092593
        k(   16) = (   0.0000000  -0.5773478  -0.3743565), wk =   0.0046296
        k(   17) = (   0.1666667   0.0962246   0.0000000), wk =   0.0185185
        k(   18) = (   0.1666667   0.0962246   0.1247855), wk =   0.0185185
        k(   19) = (   0.1666667   0.0962246   0.2495710), wk =   0.0185185
        k(   20) = (   0.1666667   0.0962246  -0.3743565), wk =   0.0185185
        k(   21) = (   0.1666667   0.2886739   0.0000000), wk =   0.0185185
        k(   22) = (   0.1666667   0.2886739   0.1247855), wk =   0.0185185
        k(   23) = (   0.1666667   0.2886739   0.2495710), wk =   0.0185185
        k(   24) = (   0.1666667   0.2886739  -0.3743565), wk =   0.0185185
        k(   25) = (   0.1666667   0.4811231   0.0000000), wk =   0.0185185
        k(   26) = (   0.1666667   0.4811231   0.1247855), wk =   0.0185185
        k(   27) = (   0.1666667   0.4811231   0.2495710), wk =   0.0185185
        k(   28) = (   0.1666667   0.4811231  -0.3743565), wk =   0.0185185
        k(   29) = (   0.3333333   0.1924493   0.0000000), wk =   0.0185185
        k(   30) = (   0.3333333   0.1924493   0.1247855), wk =   0.0185185
        k(   31) = (   0.3333333   0.1924493   0.2495710), wk =   0.0185185
        k(   32) = (   0.3333333   0.1924493  -0.3743565), wk =   0.0185185
        k(   33) = (   0.3333333   0.3848985   0.0000000), wk =   0.0185185
        k(   34) = (   0.3333333   0.3848985   0.1247855), wk =   0.0185185
        k(   35) = (   0.3333333   0.3848985   0.2495710), wk =   0.0185185
        k(   36) = (   0.3333333   0.3848985  -0.3743565), wk =   0.0185185
        k(   37) = (   0.3333333   0.5773478   0.0000000), wk =   0.0092593
        k(   38) = (   0.3333333   0.5773478   0.1247855), wk =   0.0185185
        k(   39) = (   0.3333333   0.5773478   0.2495710), wk =   0.0185185
        k(   40) = (   0.3333333   0.5773478  -0.3743565), wk =   0.0092593
        k(   41) = (   0.3333333   0.0000000   0.0000000), wk =   0.0092593
        k(   42) = (   0.3333333   0.0000000   0.1247855), wk =   0.0185185
        k(   43) = (   0.3333333   0.0000000   0.2495710), wk =   0.0185185
        k(   44) = (   0.3333333   0.0000000  -0.3743565), wk =   0.0092593
        k(   45) = (  -0.5000000  -0.2886739   0.0000000), wk =   0.0092593
        k(   46) = (  -0.5000000  -0.2886739   0.1247855), wk =   0.0185185
        k(   47) = (  -0.5000000  -0.2886739   0.2495710), wk =   0.0185185
        k(   48) = (  -0.5000000  -0.2886739  -0.3743565), wk =   0.0092593
        k(   49) = (  -0.5000000  -0.0962246   0.0000000), wk =   0.0185185
        k(   50) = (  -0.5000000  -0.0962246   0.1247855), wk =   0.0185185
        k(   51) = (  -0.5000000  -0.0962246   0.2495710), wk =   0.0185185
        k(   52) = (  -0.5000000  -0.0962246  -0.3743565), wk =   0.0185185
        k(   53) = (   0.0000000   0.1924493  -0.1247855), wk =   0.0092593
        k(   54) = (   0.0000000   0.1924493  -0.2495710), wk =   0.0092593
        k(   55) = (   0.0000000   0.3848985  -0.1247855), wk =   0.0092593
        k(   56) = (   0.0000000   0.3848985  -0.2495710), wk =   0.0092593
        k(   57) = (  -0.1666667   0.0962246  -0.1247855), wk =   0.0185185
        k(   58) = (  -0.1666667   0.0962246  -0.2495710), wk =   0.0185185
        k(   59) = (  -0.1666667   0.2886739  -0.1247855), wk =   0.0185185
        k(   60) = (  -0.1666667   0.2886739  -0.2495710), wk =   0.0185185
        k(   61) = (  -0.1666667   0.4811231  -0.1247855), wk =   0.0185185
        k(   62) = (  -0.1666667   0.4811231  -0.2495710), wk =   0.0185185
        k(   63) = (  -0.3333333   0.1924493  -0.1247855), wk =   0.0185185
        k(   64) = (  -0.3333333   0.1924493  -0.2495710), wk =   0.0185185
        k(   65) = (  -0.3333333   0.3848985  -0.1247855), wk =   0.0185185
        k(   66) = (  -0.3333333   0.3848985  -0.2495710), wk =   0.0185185
        k(   67) = (   0.5000000  -0.0962246  -0.1247855), wk =   0.0185185
        k(   68) = (   0.5000000  -0.0962246  -0.2495710), wk =   0.0185185

                       cryst. coord.
        k(    1) = (   0.0000000   0.0000000   0.0000000), wk =   0.0046296
        k(    2) = (   0.0000000   0.0000000   0.1666667), wk =   0.0092593
        k(    3) = (   0.0000000   0.0000000   0.3333333), wk =   0.0092593
        k(    4) = (   0.0000000   0.0000000  -0.5000000), wk =   0.0046296
        k(    5) = (   0.0000000   0.1666667   0.0000000), wk =   0.0092593
        k(    6) = (   0.0000000   0.1666667   0.1666667), wk =   0.0092593
        k(    7) = (   0.0000000   0.1666667   0.3333333), wk =   0.0092593
        k(    8) = (   0.0000000   0.1666667  -0.5000000), wk =   0.0092593
        k(    9) = (   0.0000000   0.3333333   0.0000000), wk =   0.0092593
        k(   10) = (   0.0000000   0.3333333   0.1666667), wk =   0.0092593
        k(   11) = (   0.0000000   0.3333333   0.3333333), wk =   0.0092593
        k(   12) = (   0.0000000   0.3333333  -0.5000000), wk =   0.0092593
        k(   13) = (   0.0000000  -0.5000000   0.0000000), wk =   0.0046296
        k(   14) = (   0.0000000  -0.5000000   0.1666667), wk =   0.0092593
        k(   15) = (   0.0000000  -0.5000000   0.3333333), wk =   0.0092593
        k(   16) = (   0.0000000  -0.5000000  -0.5000000), wk =   0.0046296
        k(   17) = (   0.1666667   0.0000000   0.0000000), wk =   0.0185185
        k(   18) = (   0.1666667   0.0000000   0.1666667), wk =   0.0185185
        k(   19) = (   0.1666667   0.0000000   0.3333333), wk =   0.0185185
        k(   20) = (   0.1666667   0.0000000  -0.5000000), wk =   0.0185185
        k(   21) = (   0.1666667   0.1666667   0.0000000), wk =   0.0185185
        k(   22) = (   0.1666667   0.1666667   0.1666667), wk =   0.0185185
        k(   23) = (   0.1666667   0.1666667   0.3333333), wk =   0.0185185
        k(   24) = (   0.1666667   0.1666667  -0.5000000), wk =   0.0185185
        k(   25) = (   0.1666667   0.3333333   0.0000000), wk =   0.0185185
        k(   26) = (   0.1666667   0.3333333   0.1666667), wk =   0.0185185
        k(   27) = (   0.1666667   0.3333333   0.3333333), wk =   0.0185185
        k(   28) = (   0.1666667   0.3333333  -0.5000000), wk =   0.0185185
        k(   29) = (   0.3333333   0.0000000   0.0000000), wk =   0.0185185
        k(   30) = (   0.3333333   0.0000000   0.1666667), wk =   0.0185185
        k(   31) = (   0.3333333   0.0000000   0.3333333), wk =   0.0185185
        k(   32) = (   0.3333333   0.0000000  -0.5000000), wk =   0.0185185
        k(   33) = (   0.3333333   0.1666667   0.0000000), wk =   0.0185185
        k(   34) = (   0.3333333   0.1666667   0.1666667), wk =   0.0185185
        k(   35) = (   0.3333333   0.1666667   0.3333333), wk =   0.0185185
        k(   36) = (   0.3333333   0.1666667  -0.5000000), wk =   0.0185185
        k(   37) = (   0.3333333   0.3333333   0.0000000), wk =   0.0092593
        k(   38) = (   0.3333333   0.3333333   0.1666667), wk =   0.0185185
        k(   39) = (   0.3333333   0.3333333   0.3333333), wk =   0.0185185
        k(   40) = (   0.3333333   0.3333333  -0.5000000), wk =   0.0092593
        k(   41) = (   0.3333333  -0.1666667   0.0000000), wk =   0.0092593
        k(   42) = (   0.3333333  -0.1666667   0.1666667), wk =   0.0185185
        k(   43) = (   0.3333333  -0.1666667   0.3333333), wk =   0.0185185
        k(   44) = (   0.3333333  -0.1666667  -0.5000000), wk =   0.0092593
        k(   45) = (  -0.5000000   0.0000000   0.0000000), wk =   0.0092593
        k(   46) = (  -0.5000000   0.0000000   0.1666667), wk =   0.0185185
        k(   47) = (  -0.5000000   0.0000000   0.3333333), wk =   0.0185185
        k(   48) = (  -0.5000000   0.0000000  -0.5000000), wk =   0.0092593
        k(   49) = (  -0.5000000   0.1666667   0.0000000), wk =   0.0185185
        k(   50) = (  -0.5000000   0.1666667   0.1666667), wk =   0.0185185
        k(   51) = (  -0.5000000   0.1666667   0.3333333), wk =   0.0185185
        k(   52) = (  -0.5000000   0.1666667  -0.5000000), wk =   0.0185185
        k(   53) = (   0.0000000   0.1666667  -0.1666667), wk =   0.0092593
        k(   54) = (   0.0000000   0.1666667  -0.3333333), wk =   0.0092593
        k(   55) = (   0.0000000   0.3333333  -0.1666667), wk =   0.0092593
        k(   56) = (   0.0000000   0.3333333  -0.3333333), wk =   0.0092593
        k(   57) = (  -0.1666667   0.1666667  -0.1666667), wk =   0.0185185
        k(   58) = (  -0.1666667   0.1666667  -0.3333333), wk =   0.0185185
        k(   59) = (  -0.1666667   0.3333333  -0.1666667), wk =   0.0185185
        k(   60) = (  -0.1666667   0.3333333  -0.3333333), wk =   0.0185185
        k(   61) = (  -0.1666667   0.5000000  -0.1666667), wk =   0.0185185
        k(   62) = (  -0.1666667   0.5000000  -0.3333333), wk =   0.0185185
        k(   63) = (  -0.3333333   0.3333333  -0.1666667), wk =   0.0185185
        k(   64) = (  -0.3333333   0.3333333  -0.3333333), wk =   0.0185185
        k(   65) = (  -0.3333333   0.5000000  -0.1666667), wk =   0.0185185
        k(   66) = (  -0.3333333   0.5000000  -0.3333333), wk =   0.0185185
        k(   67) = (   0.5000000  -0.3333333  -0.1666667), wk =   0.0185185
        k(   68) = (   0.5000000  -0.3333333  -0.3333333), wk =   0.0185185

     Dense  grid:    60331 G-vectors     FFT dimensions: (  48,  48,  72)

     Smooth grid:    32805 G-vectors     FFT dimensions: (  40,  40,  54)

     Dynamical RAM for                 wfc:       1.63 MB

     Dynamical RAM for     wfc (w. buffer):     112.40 MB

     Dynamical RAM for           str. fact:       0.46 MB

     Dynamical RAM for           local pot:       0.00 MB

     Dynamical RAM for          nlocal pot:       3.20 MB

     Dynamical RAM for                qrad:       3.64 MB

     Dynamical RAM for          rho,v,vnew:      13.12 MB

     Dynamical RAM for               rhoin:       4.37 MB

     Dynamical RAM for            rho*nmix:      29.46 MB

     Dynamical RAM for           G-vectors:       1.85 MB

     Dynamical RAM for          h,s,v(r/c):       0.12 MB

     Dynamical RAM for          <psi|beta>:       0.08 MB

     Dynamical RAM for                 psi:       3.26 MB

     Dynamical RAM for                hpsi:       3.26 MB

     Dynamical RAM for                spsi:       3.26 MB

     Dynamical RAM for      wfcinit/wfcrot:       2.46 MB

     Dynamical RAM for           addusdens:     282.16 MB

     Dynamical RAM for         addusstress:     289.07 MB

     Estimated static dynamical RAM per process >     145.02 MB

     Estimated max dynamical RAM per process >     463.55 MB

     Estimated total dynamical RAM >     927.09 MB

     Initial potential from superposition of free atoms

     starting charge      17.9993, renormalised to      18.0000
     Starting wfcs are   24 randomized atomic wfcs +    2 random wfcs

     total cpu time spent up to now is        3.7 secs

     per-process dynamical memory:   164.1 Mb

     Self-consistent Calculation

     iteration #  1     ecut=    50.00 Ry     beta= 0.40
     Davidson diagonalization with overlap

---- Real-time Memory Report at c_bands before calling an iterative solver
           353 MiB given to the printing process from OS
           162 MiB allocation reported by mallinfo(arena+hblkhd)
           941 MiB available memory on the node where the printing process lives
------------------
     c_bands:  1 eigenvalues not converged
     c_bands:  2 eigenvalues not converged
     c_bands:  2 eigenvalues not converged
     c_bands:  2 eigenvalues not converged
     c_bands:  1 eigenvalues not converged
     c_bands:  2 eigenvalues not converged
     c_bands:  2 eigenvalues not converged
     c_bands:  1 eigenvalues not converged
     c_bands:  2 eigenvalues not converged
     c_bands:  2 eigenvalues not converged
     c_bands:  2 eigenvalues not converged
     c_bands:  2 eigenvalues not converged
     c_bands:  1 eigenvalues not converged
     c_bands:  2 eigenvalues not converged
     c_bands:  2 eigenvalues not converged
     c_bands:  2 eigenvalues not converged
     c_bands:  2 eigenvalues not converged
     c_bands:  2 eigenvalues not converged
     c_bands:  1 eigenvalues not converged
     c_bands:  2 eigenvalues not converged
     c_bands:  2 eigenvalues not converged
     c_bands:  2 eigenvalues not converged
     c_bands:  2 eigenvalues not converged
     c_bands:  2 eigenvalues not converged
     c_bands:  2 eigenvalues not converged
     c_bands:  2 eigenvalues not converged
     c_bands:  2 eigenvalues not converged
     c_bands:  2 eigenvalues not converged
     c_bands:  1 eigenvalues not converged
     c_bands:  2 eigenvalues not converged
     c_bands:  2 eigenvalues not converged
     c_bands:  1 eigenvalues not converged
     c_bands:  1 eigenvalues not converged
     ethr =  1.00E-05,  avg # of iterations = 18.7

     total cpu time spent up to now is       35.4 secs

     total energy              =     -85.64365830 Ry
     estimated scf accuracy    <       0.01521574 Ry

     iteration #  2     ecut=    50.00 Ry     beta= 0.40
     Davidson diagonalization with overlap

---- Real-time Memory Report at c_bands before calling an iterative solver
           490 MiB given to the printing process from OS
           182 MiB allocation reported by mallinfo(arena+hblkhd)
           890 MiB available memory on the node where the printing process lives
------------------
     ethr =  8.45E-05,  avg # of iterations =  1.1

     total cpu time spent up to now is       44.7 secs

     total energy              =     -85.64346092 Ry
     estimated scf accuracy    <       0.00447507 Ry

     iteration #  3     ecut=    50.00 Ry     beta= 0.40
     Davidson diagonalization with overlap

---- Real-time Memory Report at c_bands before calling an iterative solver
           492 MiB given to the printing process from OS
           184 MiB allocation reported by mallinfo(arena+hblkhd)
           886 MiB available memory on the node where the printing process lives
------------------
     ethr =  2.49E-05,  avg # of iterations =  1.3

     total cpu time spent up to now is       54.0 secs

     total energy              =     -85.64370247 Ry
     estimated scf accuracy    <       0.00018591 Ry

     iteration #  4     ecut=    50.00 Ry     beta= 0.40
     Davidson diagonalization with overlap

---- Real-time Memory Report at c_bands before calling an iterative solver
           494 MiB given to the printing process from OS
           186 MiB allocation reported by mallinfo(arena+hblkhd)
           882 MiB available memory on the node where the printing process lives
------------------
     ethr =  1.03E-06,  avg # of iterations =  5.3

     total cpu time spent up to now is       66.5 secs

     total energy              =     -85.64376719 Ry
     estimated scf accuracy    <       0.00000664 Ry

     iteration #  5     ecut=    50.00 Ry     beta= 0.40
     Davidson diagonalization with overlap

---- Real-time Memory Report at c_bands before calling an iterative solver
           496 MiB given to the printing process from OS
           188 MiB allocation reported by mallinfo(arena+hblkhd)
           878 MiB available memory on the node where the printing process lives
------------------
     ethr =  3.69E-08,  avg # of iterations =  4.1

     total cpu time spent up to now is       79.4 secs

     total energy              =     -85.64377075 Ry
     estimated scf accuracy    <       0.00000201 Ry

     iteration #  6     ecut=    50.00 Ry     beta= 0.40
     Davidson diagonalization with overlap

---- Real-time Memory Report at c_bands before calling an iterative solver
           498 MiB given to the printing process from OS
           190 MiB allocation reported by mallinfo(arena+hblkhd)
           874 MiB available memory on the node where the printing process lives
------------------
     ethr =  1.12E-08,  avg # of iterations =  2.1

     total cpu time spent up to now is       90.0 secs

     total energy              =     -85.64377103 Ry
     estimated scf accuracy    <       0.00000012 Ry

     iteration #  7     ecut=    50.00 Ry     beta= 0.40
     Davidson diagonalization with overlap

---- Real-time Memory Report at c_bands before calling an iterative solver
           500 MiB given to the printing process from OS
           192 MiB allocation reported by mallinfo(arena+hblkhd)
           870 MiB available memory on the node where the printing process lives
------------------
     ethr =  6.48E-10,  avg # of iterations =  2.7

     total cpu time spent up to now is      101.1 secs

     total energy              =     -85.64377106 Ry
     estimated scf accuracy    <       0.00000002 Ry

     iteration #  8     ecut=    50.00 Ry     beta= 0.40
     Davidson diagonalization with overlap

---- Real-time Memory Report at c_bands before calling an iterative solver
           502 MiB given to the printing process from OS
           194 MiB allocation reported by mallinfo(arena+hblkhd)
           866 MiB available memory on the node where the printing process lives
------------------
     ethr =  1.05E-10,  avg # of iterations =  2.9

     total cpu time spent up to now is      112.1 secs

     End of self-consistent calculation

          k = 0.0000 0.0000 0.0000 (  4117 PWs)   bands (ev):

    -7.6537  -7.6537  -4.3304  -4.3304  -4.3290  -4.3290   2.7632   2.7632
     2.9577   2.9577   3.3920   3.3920   4.3444   4.3444   4.3944   4.3944
     5.2537   5.2537   6.6585   6.6585   7.2742   7.2742   7.8245   7.8245
    10.9690  10.9705

     occupation numbers 
     1.0000   1.0000   1.0000   1.0000   1.0000   1.0000   1.0000   1.0000
     1.0000   1.0000   1.0000   1.0000   1.0000   1.0000   1.0000   1.0000
     1.0000   1.0000   0.0000   0.0000   0.0000   0.0000   0.0000   0.0000
     0.0000   0.0000

          k = 0.0000 0.0000 0.1248 (  4117 PWs)   bands (ev):

    -7.5536  -7.5524  -5.2676  -5.2647  -3.3624  -3.3610   2.5325   2.5348
     2.9399   3.1115   3.2023   3.6506   4.3015   4.4101   4.4818   4.5447
     5.1692   5.2767   6.5422   6.5655   7.0460   7.1331   7.5446   7.5597
    10.6368  10.6744

     occupation numbers 
     1.0000   1.0000   1.0000   1.0000   1.0000   1.0000   1.0000   1.0000
     1.0000   1.0000   1.0000   1.0000   1.0000   1.0000   1.0000   1.0000
     1.0000   1.0000   0.0000   0.0000   0.0000   0.0000   0.0000   0.0000
     0.0000   0.0000

          k = 0.0000 0.0000 0.2496 (  4123 PWs)   bands (ev):

    -7.2542  -7.2520  -6.0925  -6.0892  -2.5323  -2.5289   2.0465   2.0884
     3.0881   3.1907   3.2563   3.6733   4.4182   4.5724   4.5751   4.8253
     5.0128   5.2318   6.4237   6.4322   6.6870   6.8629   7.0057   7.0790
    10.1956  10.2141

     occupation numbers 
     1.0000   1.0000   1.0000   1.0000   1.0000   1.0000   1.0000   1.0000
     1.0000   1.0000   1.0000   1.0000   1.0000   1.0000   1.0000   1.0000
     1.0000   1.0000   0.0016   0.0012   0.0000   0.0000   0.0000   0.0000
     0.0000   0.0000

          k = 0.0000 0.0000-0.3744 (  4142 PWs)   bands (ev):

    -6.7627  -6.7627  -6.7597  -6.7597  -2.1687  -2.1687   1.8169   1.8169
     3.1858   3.1858   3.4756   3.4756   4.5581   4.5581   4.8006   4.8006
     5.0834   5.0834   6.4587   6.4587   6.5727   6.5727   6.7952   6.7952
    10.0143  10.0143

     occupation numbers 
     1.0000   1.0000   1.0000   1.0000   1.0000   1.0000   1.0000   1.0000
     1.0000   1.0000   1.0000   1.0000   1.0000   1.0000   1.0000   1.0000
     1.0000   1.0000   0.0005   0.0005   0.0000   0.0000   0.0000   0.0000
     0.0000   0.0000

          k = 0.0000 0.1924 0.0000 (  4119 PWs)   bands (ev):

    -7.4727  -7.4724  -4.3937  -4.3880  -4.2771  -4.2729   1.7581   1.8536
     2.3247   2.4732   2.8265   3.0606   4.5670   4.7371   4.9441   5.0343
     5.2171   5.3321   6.7603   6.8406   6.9937   7.0786   7.5741   7.6734
    10.4066  10.4464

     occupation numbers 
     1.0000   1.0000   1.0000   1.0000   1.0000   1.0000   1.0000   1.0000
     1.0000   1.0000   1.0000   1.0000   1.0000   1.0000   1.0000   1.0000
     1.0000   1.0000   0.0000   0.0000   0.0000   0.0000   0.0000   0.0000
     0.0000   0.0000

          k = 0.0000 0.1924 0.1248 (  4131 PWs)   bands (ev):

    -7.3740  -7.3725  -5.2070  -5.2038  -3.4603  -3.4576   1.8546   1.9306
     2.0167   2.1467   2.9243   3.1103   4.6722   4.8030   4.9847   5.1792
     5.3667   5.4619   6.6059   6.6320   6.7930   6.9312   7.4363   7.4978
    10.0052  10.0137

     occupation numbers 
     1.0000   1.0000   1.0000   1.0000   1.0000   1.0000   1.0000   1.0000
     1.0000   1.0000   1.0000   1.0000   1.0000   1.0000   1.0000   1.0000
     1.0000   1.0000   0.0000   0.0000   0.0000   0.0000   0.0000   0.0000
     0.0000   0.0000

          k = 0.0000 0.1924 0.2496 (  4122 PWs)   bands (ev):

    -7.0820  -7.0793  -5.9774  -5.9735  -2.7953  -2.7910   1.7025   1.7925
     2.1989   2.3686   3.0260   3.2064   4.4651   4.5413   4.6759   4.7847
     4.9514   5.0552   6.6648   6.7730   7.0013   7.1531   7.7047   7.7184
    10.0305  10.0571

     occupation numbers 
     1.0000   1.0000   1.0000   1.0000   1.0000   1.0000   1.0000   1.0000
     1.0000   1.0000   1.0000   1.0000   1.0000   1.0000   1.0000   1.0000
     1.0000   1.0000   0.0000   0.0000   0.0000   0.0000   0.0000   0.0000
     0.0000   0.0000

          k = 0.0000 0.1924-0.3744 (  4112 PWs)   bands (ev):

    -6.6283  -6.6266  -6.5897  -6.5883  -2.5513  -2.5505   1.6665   1.7455
     2.6579   2.8981   2.9771   3.1516   3.9306   4.1642   4.2716   4.4255
     4.6336   4.8310   6.7982   6.9380   7.3786   7.5100   7.9121   7.9191
    10.4440  10.4658

     occupation numbers 
     1.0000   1.0000   1.0000   1.0000   1.0000   1.0000   1.0000   1.0000
     1.0000   1.0000   1.0000   1.0000   1.0000   1.0000   1.0000   1.0000
     1.0000   1.0000   0.0000   0.0000   0.0000   0.0000   0.0000   0.0000
     0.0000   0.0000

          k = 0.0000 0.3849 0.0000 (  4086 PWs)   bands (ev):

    -7.0034  -7.0028  -4.6982  -4.6928  -4.1542  -4.1503   1.0473   1.1031
     1.6309   1.7905   2.3452   2.5578   3.5207   3.5953   4.8470   4.9958
     5.0805   5.2272   6.8702   6.9778   7.1091   7.1472   8.7870   8.8044
     9.3899   9.4190

     occupation numbers 
     1.0000   1.0000   1.0000   1.0000   1.0000   1.0000   1.0000   1.0000
     1.0000   1.0000   1.0000   1.0000   1.0000   1.0000   1.0000   1.0000
     1.0000   1.0000   0.0000   0.0000   0.0000   0.0000   0.0000   0.0000
     0.0000   0.0000

          k = 0.0000 0.3849 0.1248 (  4102 PWs)   bands (ev):

    -6.9072  -6.9047  -5.1759  -5.1715  -3.7174  -3.7111   0.8971   0.9250
     1.3811   1.4780   2.4652   2.6017   4.2411   4.4950   4.7221   4.9981
     5.0135   5.2068   6.8034   6.8686   7.3002   7.4000   7.8997   7.9272
     9.3231   9.3843

     occupation numbers 
     1.0000   1.0000   1.0000   1.0000   1.0000   1.0000   1.0000   1.0000
     1.0000   1.0000   1.0000   1.0000   1.0000   1.0000   1.0000   1.0000
     1.0000   1.0000   0.0000   0.0000   0.0000   0.0000   0.0000   0.0000
     0.0000   0.0000

          k = 0.0000 0.3849 0.2496 (  4110 PWs)   bands (ev):

    -6.6398  -6.6350  -5.7448  -5.7385  -3.4119  -3.4056   0.7332   0.7773
     1.6213   1.7377   2.6104   2.7249   3.9721   4.1323   4.3589   4.4579
     5.7696   5.8226   6.6614   6.7279   7.3169   7.4497   7.8182   8.1540
     9.7992   9.9375

     occupation numbers 
     1.0000   1.0000   1.0000   1.0000   1.0000   1.0000   1.0000   1.0000
     1.0000   1.0000   1.0000   1.0000   1.0000   1.0000   1.0000   1.0000
     0.9999   0.9995   0.0000   0.0000   0.0000   0.0000   0.0000   0.0000
     0.0000   0.0000

          k = 0.0000 0.3849-0.3744 (  4108 PWs)   bands (ev):

    -6.3259  -6.3240  -6.1402  -6.1381  -3.3794  -3.3779   0.8239   0.8654
     2.1328   2.2571   2.5038   2.6207   3.7199   3.7865   4.0069   4.0886
     4.9556   5.0555   7.2254   7.4236   7.8942   7.9997   8.3024   8.5145
    10.4614  10.6126

     occupation numbers 
     1.0000   1.0000   1.0000   1.0000   1.0000   1.0000   1.0000   1.0000
     1.0000   1.0000   1.0000   1.0000   1.0000   1.0000   1.0000   1.0000
     1.0000   1.0000   0.0000   0.0000   0.0000   0.0000   0.0000   0.0000
     0.0000   0.0000

          k = 0.0000-0.5773 0.0000 (  4094 PWs)   bands (ev):

    -6.6503  -6.6503  -5.0113  -5.0113  -4.0838  -4.0838   1.0211   1.0211
     1.5217   1.5217   2.3576   2.3576   2.5662   2.5662   4.8340   4.8340
     5.1196   5.1196   6.9225   6.9225   7.0433   7.0433   9.0123   9.0123
     9.7280   9.7280

     occupation numbers 
     1.0000   1.0000   1.0000   1.0000   1.0000   1.0000   1.0000   1.0000
     1.0000   1.0000   1.0000   1.0000   1.0000   1.0000   1.0000   1.0000
     1.0000   1.0000   0.0000   0.0000   0.0000   0.0000   0.0000   0.0000
     0.0000   0.0000

          k = 0.0000-0.5773 0.1248 (  4098 PWs)   bands (ev):

    -6.5764  -6.5726  -5.1723  -5.1681  -4.0325  -4.0245   0.9824   1.0218
     1.1869   1.2951   2.2988   2.4579   3.1882   3.3657   4.4684   4.6350
     4.7880   4.8696   6.9171   6.9566   7.5062   7.7232   9.1685   9.1891
     9.3627   9.4754

     occupation numbers 
     1.0000   1.0000   1.0000   1.0000   1.0000   1.0000   1.0000   1.0000
     1.0000   1.0000   1.0000   1.0000   1.0000   1.0000   1.0000   1.0000
     1.0000   1.0000   0.0000   0.0000   0.0000   0.0000   0.0000   0.0000
     0.0000   0.0000

          k = 0.0000-0.5773 0.2496 (  4098 PWs)   bands (ev):

    -6.3654  -6.3589  -5.5270  -5.5194  -3.9389  -3.9319   0.4675   0.4976
     1.6344   1.7424   2.4115   2.5264   3.6230   3.8985   4.0858   4.2743
     4.7557   4.9518   7.2695   7.3543   7.8714   7.9498   8.2769   8.6078
    10.0855  10.3032

     occupation numbers 
     1.0000   1.0000   1.0000   1.0000   1.0000   1.0000   1.0000   1.0000
     1.0000   1.0000   1.0000   1.0000   1.0000   1.0000   1.0000   1.0000
     1.0000   1.0000   0.0000   0.0000   0.0000   0.0000   0.0000   0.0000
     0.0000   0.0000

          k = 0.0000-0.5773-0.3744 (  4088 PWs)   bands (ev):

    -6.1505  -6.1505  -5.7972  -5.7972  -3.8932  -3.8932   0.2826   0.2826
     2.1666   2.1666   2.2978   2.2978   3.5821   3.5821   3.9387   3.9387
     5.7828   5.7828   6.7372   6.7372   7.7997   7.7997   8.6663   8.6663
    10.5569  10.5571

     occupation numbers 
     1.0000   1.0000   1.0000   1.0000   1.0000   1.0000   1.0000   1.0000
     1.0000   1.0000   1.0000   1.0000   1.0000   1.0000   1.0000   1.0000
     0.9999   0.9999   0.0000   0.0000   0.0000   0.0000   0.0000   0.0000
     0.0000   0.0000

          k = 0.1667 0.0962 0.0000 (  4119 PWs)   bands (ev):

    -7.4727  -7.4724  -4.3936  -4.3880  -4.2771  -4.2730   1.7581   1.8536
     2.3247   2.4732   2.8265   3.0606   4.5670   4.7371   4.9441   5.0343
     5.2171   5.3321   6.7603   6.8406   6.9937   7.0786   7.5741   7.6734
    10.4068  10.4465

     occupation numbers 
     1.0000   1.0000   1.0000   1.0000   1.0000   1.0000   1.0000   1.0000
     1.0000   1.0000   1.0000   1.0000   1.0000   1.0000   1.0000   1.0000
     1.0000   1.0000   0.0000   0.0000   0.0000   0.0000   0.0000   0.0000
     0.0000   0.0000

          k = 0.1667 0.0962 0.1248 (  4131 PWs)   bands (ev):

    -7.3766  -7.3752  -5.1793  -5.1761  -3.5174  -3.5147   1.8199   1.9065
     2.5499   2.7456   2.8248   3.1855   4.2684   4.3187   4.4114   4.5887
     4.8393   5.0273   7.0030   7.0979   7.4097   7.5338   7.8178   7.9129
    10.7000  10.7410

     occupation numbers 
     1.0000   1.0000   1.0000   1.0000   1.0000   1.0000   1.0000   1.0000
     1.0000   1.0000   1.0000   1.0000   1.0000   1.0000   1.0000   1.0000
     1.0000   1.0000   0.0000   0.0000   0.0000   0.0000   0.0000   0.0000
     0.0000   0.0000

          k = 0.1667 0.0962 0.2496 (  4122 PWs)   bands (ev):

    -7.0879  -7.0852  -5.9601  -5.9563  -2.8462  -2.8418   1.8255   1.8934
     2.6729   2.8344   3.0866   3.3319   3.7474   3.9702   4.1875   4.2748
     4.6579   4.8107   7.0295   7.0707   7.6743   7.7697   7.8325   7.9007
    10.6397  10.6593

     occupation numbers 
     1.0000   1.0000   1.0000   1.0000   1.0000   1.0000   1.0000   1.0000
     1.0000   1.0000   1.0000   1.0000   1.0000   1.0000   1.0000   1.0000
     1.0000   1.0000   0.0000   0.0000   0.0000   0.0000   0.0000   0.0000
     0.0000   0.0000

          k = 0.1667 0.0962-0.3744 (  4112 PWs)   bands (ev):

    -6.6284  -6.6266  -6.5897  -6.5883  -2.5513  -2.5505   1.6665   1.7455
     2.6579   2.8982   2.9771   3.1515   3.9306   4.1642   4.2716   4.4255
     4.6336   4.8310   6.7982   6.9380   7.3786   7.5100   7.9121   7.9191
    10.4438  10.4658

     occupation numbers 
     1.0000   1.0000   1.0000   1.0000   1.0000   1.0000   1.0000   1.0000
     1.0000   1.0000   1.0000   1.0000   1.0000   1.0000   1.0000   1.0000
     1.0000   1.0000   0.0000   0.0000   0.0000   0.0000   0.0000   0.0000
     0.0000   0.0000

          k = 0.1667 0.2887 0.0000 (  4113 PWs)   bands (ev):

    -7.1432  -7.1425  -4.5235  -4.5133  -4.2619  -4.2533   1.2417   1.3556
     1.5109   1.6194   2.8800   3.0427   4.0461   4.2015   4.3284   4.3985
     4.7980   4.8464   7.5139   7.5509   7.6038   7.6378   7.9690   7.9873
    10.2814  10.2877

     occupation numbers 
     1.0000   1.0000   1.0000   1.0000   1.0000   1.0000   1.0000   1.0000
     1.0000   1.0000   1.0000   1.0000   1.0000   1.0000   1.0000   1.0000
     1.0000   1.0000   0.0000   0.0000   0.0000   0.0000   0.0000   0.0000
     0.0000   0.0000

          k = 0.1667 0.2887 0.1248 (  4107 PWs)   bands (ev):

    -7.0521  -7.0500  -5.0994  -5.0954  -3.7500  -3.7448   1.2531   1.3179
     1.6716   1.7286   2.7876   2.9228   3.6079   3.7026   4.3836   4.5011
     5.4245   5.4909   6.8699   6.9404   7.6597   7.7008   8.2744   8.3061
    10.2551  10.2856

     occupation numbers 
     1.0000   1.0000   1.0000   1.0000   1.0000   1.0000   1.0000   1.0000
     1.0000   1.0000   1.0000   1.0000   1.0000   1.0000   1.0000   1.0000
     1.0000   1.0000   0.0000   0.0000   0.0000   0.0000   0.0000   0.0000
     0.0000   0.0000

          k = 0.1667 0.2887 0.2496 (  4107 PWs)   bands (ev):

    -6.7822  -6.7785  -5.7649  -5.7599  -3.3060  -3.3002   1.2636   1.3570
     1.7675   1.9022   2.6226   2.7385   3.2994   3.4805   4.8414   4.9696
     5.1709   5.2917   6.8122   6.8666   7.6547   7.6653   8.4589   8.5126
    10.4366  10.4573

     occupation numbers 
     1.0000   1.0000   1.0000   1.0000   1.0000   1.0000   1.0000   1.0000
     1.0000   1.0000   1.0000   1.0000   1.0000   1.0000   1.0000   1.0000
     1.0000   1.0000   0.0000   0.0000   0.0000   0.0000   0.0000   0.0000
     0.0000   0.0000

          k = 0.1667 0.2887-0.3744 (  4124 PWs)   bands (ev):

    -6.3906  -6.3876  -6.2936  -6.2905  -3.1383  -3.1368   1.2398   1.3364
     2.0669   2.0807   2.1937   2.2951   3.8693   4.0300   4.4332   4.4665
     5.1561   5.2409   6.7346   6.8138   8.1140   8.1300   8.3185   8.3395
    10.6315  10.6715

     occupation numbers 
     1.0000   1.0000   1.0000   1.0000   1.0000   1.0000   1.0000   1.0000
     1.0000   1.0000   1.0000   1.0000   1.0000   1.0000   1.0000   1.0000
     1.0000   1.0000   0.0000   0.0000   0.0000   0.0000   0.0000   0.0000
     0.0000   0.0000

          k = 0.1667 0.4811 0.0000 (  4107 PWs)   bands (ev):

    -6.6770  -6.6762  -4.8282  -4.8221  -4.2754  -4.2699   1.0939   1.1659
     1.3693   1.4774   2.4461   2.6447   2.9390   3.0617   3.9754   4.0634
     4.2163   4.2566   7.7551   7.7914   8.1139   8.1273   9.2340   9.2439
     9.8788   9.8955

     occupation numbers 
     1.0000   1.0000   1.0000   1.0000   1.0000   1.0000   1.0000   1.0000
     1.0000   1.0000   1.0000   1.0000   1.0000   1.0000   1.0000   1.0000
     1.0000   1.0000   0.0000   0.0000   0.0000   0.0000   0.0000   0.0000
     0.0000   0.0000

          k = 0.1667 0.4811 0.1248 (  4099 PWs)   bands (ev):

    -6.5935  -6.5898  -5.1294  -5.1242  -4.0466  -4.0379   0.8301   0.8630
     1.3276   1.4281   2.3730   2.5039   3.1704   3.3379   4.0387   4.1698
     4.8700   4.9893   7.3039   7.3689   8.3360   8.3690   8.4855   8.5565
    10.0213  10.0760

     occupation numbers 
     1.0000   1.0000   1.0000   1.0000   1.0000   1.0000   1.0000   1.0000
     1.0000   1.0000   1.0000   1.0000   1.0000   1.0000   1.0000   1.0000
     1.0000   1.0000   0.0000   0.0000   0.0000   0.0000   0.0000   0.0000
     0.0000   0.0000

          k = 0.1667 0.4811 0.2496 (  4096 PWs)   bands (ev):

    -6.3609  -6.3541  -5.5696  -5.5614  -3.8485  -3.8408   0.5654   0.6078
     1.3109   1.3865   2.1076   2.1814   3.4155   3.5429   4.9790   5.1862
     5.5423   5.7986   6.6657   6.7296   7.4324   7.5030   8.5175   8.6269
    10.3382  10.4156

     occupation numbers 
     1.0000   1.0000   1.0000   1.0000   1.0000   1.0000   1.0000   1.0000
     1.0000   1.0000   1.0000   1.0000   1.0000   1.0000   1.0000   1.0000
     1.0000   0.9998   0.0000   0.0000   0.0000   0.0000   0.0000   0.0000
     0.0000   0.0000

          k = 0.1667 0.4811-0.3744 (  4098 PWs)   bands (ev):

    -6.1020  -6.0996  -5.8864  -5.8834  -3.8043  -3.8026   0.5522   0.5798
     1.4945   1.5244   1.6377   1.7207   4.2570   4.3601   4.7547   4.7954
     5.5607   5.6365   6.8656   6.9677   7.5496   7.6131   8.1903   8.2376
    10.8132  10.8478

     occupation numbers 
     1.0000   1.0000   1.0000   1.0000   1.0000   1.0000   1.0000   1.0000
     1.0000   1.0000   1.0000   1.0000   1.0000   1.0000   1.0000   1.0000
     1.0000   1.0000   0.0000   0.0000   0.0000   0.0000   0.0000   0.0000
     0.0000   0.0000

          k = 0.3333 0.1924 0.0000 (  4086 PWs)   bands (ev):

    -7.0034  -7.0028  -4.6981  -4.6927  -4.1543  -4.1503   1.0473   1.1032
     1.6309   1.7905   2.3452   2.5578   3.5207   3.5953   4.8470   4.9958
     5.0805   5.2272   6.8702   6.9778   7.1091   7.1472   8.7870   8.8044
     9.3899   9.4190

     occupation numbers 
     1.0000   1.0000   1.0000   1.0000   1.0000   1.0000   1.0000   1.0000
     1.0000   1.0000   1.0000   1.0000   1.0000   1.0000   1.0000   1.0000
     1.0000   1.0000   0.0000   0.0000   0.0000   0.0000   0.0000   0.0000
     0.0000   0.0000

          k = 0.3333 0.1924 0.1248 (  4102 PWs)   bands (ev):

    -6.9249  -6.9226  -5.0136  -5.0098  -3.9729  -3.9668   1.3229   1.4354
     1.8245   1.9433   2.5544   2.7903   2.8083   3.0347   4.3714   4.6221
     4.8149   4.9768   6.9951   7.0896   7.6992   7.9290   9.1925   9.2057
     9.9725  10.0856

     occupation numbers 
     1.0000   1.0000   1.0000   1.0000   1.0000   1.0000   1.0000   1.0000
     1.0000   1.0000   1.0000   1.0000   1.0000   1.0000   1.0000   1.0000
     1.0000   1.0000   0.0000   0.0000   0.0000   0.0000   0.0000   0.0000
     0.0000   0.0000

          k = 0.3333 0.1924 0.2496 (  4110 PWs)   bands (ev):

    -6.6783  -6.6742  -5.6322  -5.6270  -3.6006  -3.5945   1.2017   1.2757
     1.9666   2.1270   2.5693   2.7151   3.3009   3.6625   3.9170   4.0868
     4.4181   4.6417   7.4041   7.4540   8.2500   8.4044   8.8732   8.8881
    10.5989  10.7109

     occupation numbers 
     1.0000   1.0000   1.0000   1.0000   1.0000   1.0000   1.0000   1.0000
     1.0000   1.0000   1.0000   1.0000   1.0000   1.0000   1.0000   1.0000
     1.0000   1.0000   0.0000   0.0000   0.0000   0.0000   0.0000   0.0000
     0.0000   0.0000

          k = 0.3333 0.1924-0.3744 (  4108 PWs)   bands (ev):

    -6.3259  -6.3240  -6.1401  -6.1381  -3.3794  -3.3779   0.8239   0.8654
     2.1328   2.2571   2.5038   2.6206   3.7199   3.7865   4.0069   4.0886
     4.9556   5.0555   7.2254   7.4236   7.8942   7.9997   8.3024   8.5145
    10.4614  10.6126

     occupation numbers 
     1.0000   1.0000   1.0000   1.0000   1.0000   1.0000   1.0000   1.0000
     1.0000   1.0000   1.0000   1.0000   1.0000   1.0000   1.0000   1.0000
     1.0000   1.0000   0.0000   0.0000   0.0000   0.0000   0.0000   0.0000
     0.0000   0.0000

          k = 0.3333 0.3849 0.0000 (  4107 PWs)   bands (ev):

    -6.6770  -6.6762  -4.8282  -4.8220  -4.2754  -4.2700   1.0939   1.1659
     1.3693   1.4774   2.4461   2.6447   2.9390   3.0617   3.9754   4.0634
     4.2163   4.2566   7.7550   7.7914   8.1139   8.1273   9.2340   9.2439
     9.8788   9.8955

     occupation numbers 
     1.0000   1.0000   1.0000   1.0000   1.0000   1.0000   1.0000   1.0000
     1.0000   1.0000   1.0000   1.0000   1.0000   1.0000   1.0000   1.0000
     1.0000   1.0000   0.0000   0.0000   0.0000   0.0000   0.0000   0.0000
     0.0000   0.0000

          k = 0.3333 0.3849 0.1248 (  4099 PWs)   bands (ev):

    -6.6048  -6.6012  -5.0424  -5.0375  -4.1609  -4.1520   1.0234   1.0757
     1.4205   1.4929   2.3981   2.5599   2.8175   3.1873   3.6445   3.8367
     5.0960   5.1593   7.1527   7.2130   8.2348   8.2849   9.2853   9.3096
    10.1317  10.1871

     occupation numbers 
     1.0000   1.0000   1.0000   1.0000   1.0000   1.0000   1.0000   1.0000
     1.0000   1.0000   1.0000   1.0000   1.0000   1.0000   1.0000   1.0000
     1.0000   1.0000   0.0000   0.0000   0.0000   0.0000   0.0000   0.0000
     0.0000   0.0000

          k = 0.3333 0.3849 0.2496 (  4096 PWs)   bands (ev):

    -6.3848  -6.3787  -5.5018  -5.4946  -3.9314  -3.9237   0.8160   0.8890
     1.2124   1.2794   2.0611   2.1361   3.5246   3.7344   4.4428   4.5825
     5.3480   5.4786   6.9254   6.9586   8.0954   8.1596   8.5755   8.6188
    10.5985  10.6435

     occupation numbers 
     1.0000   1.0000   1.0000   1.0000   1.0000   1.0000   1.0000   1.0000
     1.0000   1.0000   1.0000   1.0000   1.0000   1.0000   1.0000   1.0000
     1.0000   1.0000   0.0000   0.0000   0.0000   0.0000   0.0000   0.0000
     0.0000   0.0000

          k = 0.3333 0.3849-0.3744 (  4098 PWs)   bands (ev):

    -6.1020  -6.0996  -5.8864  -5.8834  -3.8043  -3.8026   0.5522   0.5798
     1.4945   1.5244   1.6377   1.7207   4.2570   4.3602   4.7547   4.7953
     5.5607   5.6365   6.8656   6.9677   7.5496   7.6131   8.1902   8.2375
    10.8132  10.8479

     occupation numbers 
     1.0000   1.0000   1.0000   1.0000   1.0000   1.0000   1.0000   1.0000
     1.0000   1.0000   1.0000   1.0000   1.0000   1.0000   1.0000   1.0000
     1.0000   1.0000   0.0000   0.0000   0.0000   0.0000   0.0000   0.0000
     0.0000   0.0000

          k = 0.3333 0.5773 0.0000 (  4116 PWs)   bands (ev):

    -6.4808  -6.4808  -4.6512  -4.6481  -4.6481  -4.6366   1.2392   1.4257
     1.4257   1.4410   2.7642   2.7642   2.8611   3.0643   3.0643   3.0907
     3.4458   3.4458   8.7463   8.7870   8.9531   8.9531   9.2020   9.2020
    10.8931  10.8931

     occupation numbers 
     1.0000   1.0000   1.0000   1.0000   1.0000   1.0000   1.0000   1.0000
     1.0000   1.0000   1.0000   1.0000   1.0000   1.0000   1.0000   1.0000
     1.0000   1.0000   0.0000   0.0000   0.0000   0.0000   0.0000   0.0000
     0.0000   0.0000

          k = 0.3333 0.5773 0.1248 (  4122 PWs)   bands (ev):

    -6.4088  -6.4042  -5.0409  -5.0372  -4.3190  -4.3089   0.9441   0.9588
     1.3226   1.4882   2.1336   2.2416   2.8514   3.0356   3.8583   3.8993
     4.2405   4.4337   8.2064   8.3616   8.6811   8.8015   8.8098   8.8414
    11.0851  11.1340

     occupation numbers 
     1.0000   1.0000   1.0000   1.0000   1.0000   1.0000   1.0000   1.0000
     1.0000   1.0000   1.0000   1.0000   1.0000   1.0000   1.0000   1.0000
     1.0000   1.0000   0.0000   0.0000   0.0000   0.0000   0.0000   0.0000
     0.0000   0.0000

          k = 0.3333 0.5773 0.2496 (  4113 PWs)   bands (ev):

    -6.1961  -6.1877  -5.4649  -5.4558  -4.0823  -4.0736   0.7588   0.8128
     0.9237   0.9827   1.4028   1.5144   3.8911   4.0245   4.9469   5.0989
     5.2938   5.5840   7.0780   7.1921   7.9059   7.9953   8.1109   8.1429
    11.7179  11.7289

     occupation numbers 
     1.0000   1.0000   1.0000   1.0000   1.0000   1.0000   1.0000   1.0000
     1.0000   1.0000   1.0000   1.0000   1.0000   1.0000   1.0000   1.0000
     1.0000   1.0000   0.0000   0.0000   0.0000   0.0000   0.0000   0.0000
     0.0000   0.0000

          k = 0.3333 0.5773-0.3744 (  4110 PWs)   bands (ev):

    -5.8675  -5.8675  -5.8607  -5.8535  -3.9892  -3.9892   0.7467   0.7467
     0.8977   0.9510   1.0243   1.0243   4.8242   4.8242   5.8030   5.8030
     6.0521   6.1515   6.1516   6.1945   7.3148   7.3841   7.5429   7.5429
    11.9151  11.9152

     occupation numbers 
     1.0000   1.0000   1.0000   1.0000   1.0000   1.0000   1.0000   1.0000
     1.0000   1.0000   1.0000   1.0000   1.0000   1.0000   0.9998   0.9998
     0.8179   0.4497   0.4496   0.2832   0.0000   0.0000   0.0000   0.0000
     0.0000   0.0000

          k = 0.3333 0.0000 0.0000 (  4113 PWs)   bands (ev):

    -7.1432  -7.1425  -4.5235  -4.5133  -4.2619  -4.2533   1.2417   1.3557
     1.5109   1.6194   2.8800   3.0427   4.0462   4.2015   4.3284   4.3985
     4.7980   4.8464   7.5138   7.5509   7.6038   7.6377   7.9690   7.9872
    10.2813  10.2877

     occupation numbers 
     1.0000   1.0000   1.0000   1.0000   1.0000   1.0000   1.0000   1.0000
     1.0000   1.0000   1.0000   1.0000   1.0000   1.0000   1.0000   1.0000
     1.0000   1.0000   0.0000   0.0000   0.0000   0.0000   0.0000   0.0000
     0.0000   0.0000

          k = 0.3333 0.0000 0.1248 (  4107 PWs)   bands (ev):

    -7.0521  -7.0500  -5.0993  -5.0954  -3.7500  -3.7448   1.2531   1.3179
     1.6716   1.7286   2.7876   2.9228   3.6079   3.7026   4.3837   4.5011
     5.4244   5.4909   6.8699   6.9404   7.6596   7.7008   8.2743   8.3060
    10.2552  10.2858

     occupation numbers 
     1.0000   1.0000   1.0000   1.0000   1.0000   1.0000   1.0000   1.0000
     1.0000   1.0000   1.0000   1.0000   1.0000   1.0000   1.0000   1.0000
     1.0000   1.0000   0.0000   0.0000   0.0000   0.0000   0.0000   0.0000
     0.0000   0.0000

          k = 0.3333 0.0000 0.2496 (  4107 PWs)   bands (ev):

    -6.7822  -6.7785  -5.7649  -5.7598  -3.3060  -3.3002   1.2636   1.3569
     1.7675   1.9022   2.6226   2.7385   3.2994   3.4805   4.8414   4.9696
     5.1709   5.2917   6.8121   6.8666   7.6547   7.6653   8.4589   8.5126
    10.4367  10.4574

     occupation numbers 
     1.0000   1.0000   1.0000   1.0000   1.0000   1.0000   1.0000   1.0000
     1.0000   1.0000   1.0000   1.0000   1.0000   1.0000   1.0000   1.0000
     1.0000   1.0000   0.0000   0.0000   0.0000   0.0000   0.0000   0.0000
     0.0000   0.0000

          k = 0.3333 0.0000-0.3744 (  4124 PWs)   bands (ev):

    -6.3906  -6.3876  -6.2935  -6.2905  -3.1383  -3.1368   1.2398   1.3364
     2.0669   2.0807   2.1937   2.2951   3.8693   4.0300   4.4332   4.4664
     5.1561   5.2409   6.7346   6.8138   8.1140   8.1300   8.3185   8.3395
    10.6312  10.6713

     occupation numbers 
     1.0000   1.0000   1.0000   1.0000   1.0000   1.0000   1.0000   1.0000
     1.0000   1.0000   1.0000   1.0000   1.0000   1.0000   1.0000   1.0000
     1.0000   1.0000   0.0000   0.0000   0.0000   0.0000   0.0000   0.0000
     0.0000   0.0000

          k =-0.5000-0.2887 0.0000 (  4094 PWs)   bands (ev):

    -6.6503  -6.6503  -5.0113  -5.0113  -4.0839  -4.0839   1.0212   1.0212
     1.5217   1.5217   2.3575   2.3575   2.5662   2.5662   4.8340   4.8340
     5.1196   5.1196   6.9225   6.9225   7.0433   7.0433   9.0123   9.0123
     9.7280   9.7280

     occupation numbers 
     1.0000   1.0000   1.0000   1.0000   1.0000   1.0000   1.0000   1.0000
     1.0000   1.0000   1.0000   1.0000   1.0000   1.0000   1.0000   1.0000
     1.0000   1.0000   0.0000   0.0000   0.0000   0.0000   0.0000   0.0000
     0.0000   0.0000

          k =-0.5000-0.2887 0.1248 (  4098 PWs)   bands (ev):

    -6.5764  -6.5726  -5.1723  -5.1680  -4.0325  -4.0245   0.9824   1.0218
     1.1869   1.2951   2.2987   2.4579   3.1882   3.3657   4.4684   4.6350
     4.7880   4.8696   6.9171   6.9566   7.5061   7.7231   9.1685   9.1892
     9.3627   9.4754

     occupation numbers 
     1.0000   1.0000   1.0000   1.0000   1.0000   1.0000   1.0000   1.0000
     1.0000   1.0000   1.0000   1.0000   1.0000   1.0000   1.0000   1.0000
     1.0000   1.0000   0.0000   0.0000   0.0000   0.0000   0.0000   0.0000
     0.0000   0.0000

          k =-0.5000-0.2887 0.2496 (  4098 PWs)   bands (ev):

    -6.3654  -6.3589  -5.5270  -5.5194  -3.9389  -3.9319   0.4675   0.4976
     1.6344   1.7424   2.4114   2.5264   3.6230   3.8985   4.0857   4.2743
     4.7557   4.9518   7.2695   7.3543   7.8714   7.9498   8.2769   8.6078
    10.0855  10.3032

     occupation numbers 
     1.0000   1.0000   1.0000   1.0000   1.0000   1.0000   1.0000   1.0000
     1.0000   1.0000   1.0000   1.0000   1.0000   1.0000   1.0000   1.0000
     1.0000   1.0000   0.0000   0.0000   0.0000   0.0000   0.0000   0.0000
     0.0000   0.0000

          k =-0.5000-0.2887-0.3744 (  4088 PWs)   bands (ev):

    -6.1505  -6.1505  -5.7972  -5.7972  -3.8932  -3.8932   0.2826   0.2826
     2.1666   2.1666   2.2977   2.2977   3.5821   3.5821   3.9386   3.9386
     5.7827   5.7827   6.7372   6.7372   7.7997   7.7997   8.6663   8.6663
    10.5570  10.5570

     occupation numbers 
     1.0000   1.0000   1.0000   1.0000   1.0000   1.0000   1.0000   1.0000
     1.0000   1.0000   1.0000   1.0000   1.0000   1.0000   1.0000   1.0000
     0.9999   0.9999   0.0000   0.0000   0.0000   0.0000   0.0000   0.0000
     0.0000   0.0000

          k =-0.5000-0.0962 0.0000 (  4107 PWs)   bands (ev):

    -6.6770  -6.6762  -4.8282  -4.8220  -4.2754  -4.2700   1.0939   1.1659
     1.3693   1.4774   2.4461   2.6447   2.9390   3.0617   3.9754   4.0634
     4.2163   4.2566   7.7550   7.7914   8.1139   8.1273   9.2340   9.2439
     9.8788   9.8955

     occupation numbers 
     1.0000   1.0000   1.0000   1.0000   1.0000   1.0000   1.0000   1.0000
     1.0000   1.0000   1.0000   1.0000   1.0000   1.0000   1.0000   1.0000
     1.0000   1.0000   0.0000   0.0000   0.0000   0.0000   0.0000   0.0000
     0.0000   0.0000

          k =-0.5000-0.0962 0.1248 (  4099 PWs)   bands (ev):

    -6.5935  -6.5898  -5.1294  -5.1242  -4.0466  -4.0380   0.8301   0.8630
     1.3276   1.4281   2.3730   2.5039   3.1703   3.3379   4.0387   4.1697
     4.8700   4.9893   7.3039   7.3689   8.3360   8.3690   8.4855   8.5565
    10.0213  10.0760

     occupation numbers 
     1.0000   1.0000   1.0000   1.0000   1.0000   1.0000   1.0000   1.0000
     1.0000   1.0000   1.0000   1.0000   1.0000   1.0000   1.0000   1.0000
     1.0000   1.0000   0.0000   0.0000   0.0000   0.0000   0.0000   0.0000
     0.0000   0.0000

          k =-0.5000-0.0962 0.2496 (  4096 PWs)   bands (ev):

    -6.3609  -6.3541  -5.5696  -5.5614  -3.8485  -3.8408   0.5654   0.6078
     1.3109   1.3865   2.1076   2.1814   3.4155   3.5429   4.9790   5.1862
     5.5423   5.7986   6.6657   6.7295   7.4324   7.5030   8.5175   8.6269
    10.3382  10.4156

     occupation numbers 
     1.0000   1.0000   1.0000   1.0000   1.0000   1.0000   1.0000   1.0000
     1.0000   1.0000   1.0000   1.0000   1.0000   1.0000   1.0000   1.0000
     1.0000   0.9998   0.0000   0.0000   0.0000   0.0000   0.0000   0.0000
     0.0000   0.0000

          k =-0.5000-0.0962-0.3744 (  4098 PWs)   bands (ev):

    -6.1020  -6.0997  -5.8864  -5.8834  -3.8043  -3.8026   0.5522   0.5798
     1.4945   1.5244   1.6377   1.7207   4.2570   4.3601   4.7547   4.7953
     5.5607   5.6365   6.8656   6.9677   7.5496   7.6131   8.1903   8.2375
    10.8132  10.8478

     occupation numbers 
     1.0000   1.0000   1.0000   1.0000   1.0000   1.0000   1.0000   1.0000
     1.0000   1.0000   1.0000   1.0000   1.0000   1.0000   1.0000   1.0000
     1.0000   1.0000   0.0000   0.0000   0.0000   0.0000   0.0000   0.0000
     0.0000   0.0000

          k = 0.0000 0.1924-0.1248 (  4131 PWs)   bands (ev):

    -7.3766  -7.3752  -5.1793  -5.1761  -3.5174  -3.5147   1.8198   1.9065
     2.5500   2.7456   2.8248   3.1855   4.2684   4.3187   4.4114   4.5887
     4.8393   5.0273   7.0030   7.0979   7.4097   7.5338   7.8178   7.9129
    10.7000  10.7410

     occupation numbers 
     1.0000   1.0000   1.0000   1.0000   1.0000   1.0000   1.0000   1.0000
     1.0000   1.0000   1.0000   1.0000   1.0000   1.0000   1.0000   1.0000
     1.0000   1.0000   0.0000   0.0000   0.0000   0.0000   0.0000   0.0000
     0.0000   0.0000

          k = 0.0000 0.1924-0.2496 (  4122 PWs)   bands (ev):

    -7.0879  -7.0852  -5.9601  -5.9563  -2.8462  -2.8418   1.8255   1.8934
     2.6729   2.8344   3.0866   3.3319   3.7474   3.9702   4.1875   4.2748
     4.6579   4.8107   7.0295   7.0707   7.6743   7.7697   7.8324   7.9007
    10.6394  10.6593

     occupation numbers 
     1.0000   1.0000   1.0000   1.0000   1.0000   1.0000   1.0000   1.0000
     1.0000   1.0000   1.0000   1.0000   1.0000   1.0000   1.0000   1.0000
     1.0000   1.0000   0.0000   0.0000   0.0000   0.0000   0.0000   0.0000
     0.0000   0.0000

          k = 0.0000 0.3849-0.1248 (  4102 PWs)   bands (ev):

    -6.9249  -6.9226  -5.0136  -5.0098  -3.9729  -3.9668   1.3229   1.4354
     1.8245   1.9433   2.5544   2.7903   2.8083   3.0347   4.3714   4.6221
     4.8149   4.9768   6.9951   7.0896   7.6993   7.9290   9.1924   9.2056
     9.9725  10.0856

     occupation numbers 
     1.0000   1.0000   1.0000   1.0000   1.0000   1.0000   1.0000   1.0000
     1.0000   1.0000   1.0000   1.0000   1.0000   1.0000   1.0000   1.0000
     1.0000   1.0000   0.0000   0.0000   0.0000   0.0000   0.0000   0.0000
     0.0000   0.0000

          k = 0.0000 0.3849-0.2496 (  4110 PWs)   bands (ev):

    -6.6783  -6.6742  -5.6322  -5.6270  -3.6006  -3.5945   1.2017   1.2756
     1.9666   2.1270   2.5693   2.7151   3.3009   3.6625   3.9170   4.0868
     4.4181   4.6417   7.4041   7.4540   8.2501   8.4044   8.8731   8.8881
    10.5989  10.7109

     occupation numbers 
     1.0000   1.0000   1.0000   1.0000   1.0000   1.0000   1.0000   1.0000
     1.0000   1.0000   1.0000   1.0000   1.0000   1.0000   1.0000   1.0000
     1.0000   1.0000   0.0000   0.0000   0.0000   0.0000   0.0000   0.0000
     0.0000   0.0000

          k =-0.1667 0.0962-0.1248 (  4131 PWs)   bands (ev):

    -7.3740  -7.3725  -5.2070  -5.2038  -3.4603  -3.4576   1.8546   1.9306
     2.0167   2.1467   2.9243   3.1103   4.6722   4.8030   4.9847   5.1792
     5.3667   5.4619   6.6059   6.6320   6.7930   6.9312   7.4363   7.4978
    10.0052  10.0137

     occupation numbers 
     1.0000   1.0000   1.0000   1.0000   1.0000   1.0000   1.0000   1.0000
     1.0000   1.0000   1.0000   1.0000   1.0000   1.0000   1.0000   1.0000
     1.0000   1.0000   0.0000   0.0000   0.0000   0.0000   0.0000   0.0000
     0.0000   0.0000

          k =-0.1667 0.0962-0.2496 (  4122 PWs)   bands (ev):

    -7.0820  -7.0793  -5.9774  -5.9735  -2.7953  -2.7910   1.7025   1.7925
     2.1989   2.3687   3.0259   3.2064   4.4651   4.5413   4.6758   4.7847
     4.9514   5.0552   6.6648   6.7730   7.0013   7.1531   7.7048   7.7185
    10.0305  10.0571

     occupation numbers 
     1.0000   1.0000   1.0000   1.0000   1.0000   1.0000   1.0000   1.0000
     1.0000   1.0000   1.0000   1.0000   1.0000   1.0000   1.0000   1.0000
     1.0000   1.0000   0.0000   0.0000   0.0000   0.0000   0.0000   0.0000
     0.0000   0.0000

          k =-0.1667 0.2887-0.1248 (  4107 PWs)   bands (ev):

    -7.0521  -7.0500  -5.0994  -5.0954  -3.7500  -3.7448   1.2531   1.3179
     1.6716   1.7286   2.7876   2.9228   3.6079   3.7026   4.3837   4.5011
     5.4245   5.4909   6.8700   6.9404   7.6597   7.7008   8.2743   8.3060
    10.2552  10.2858

     occupation numbers 
     1.0000   1.0000   1.0000   1.0000   1.0000   1.0000   1.0000   1.0000
     1.0000   1.0000   1.0000   1.0000   1.0000   1.0000   1.0000   1.0000
     1.0000   1.0000   0.0000   0.0000   0.0000   0.0000   0.0000   0.0000
     0.0000   0.0000

          k =-0.1667 0.2887-0.2496 (  4107 PWs)   bands (ev):

    -6.7822  -6.7785  -5.7649  -5.7598  -3.3060  -3.3002   1.2636   1.3570
     1.7675   1.9022   2.6225   2.7385   3.2994   3.4805   4.8414   4.9696
     5.1709   5.2917   6.8122   6.8666   7.6547   7.6653   8.4589   8.5126
    10.4366  10.4573

     occupation numbers 
     1.0000   1.0000   1.0000   1.0000   1.0000   1.0000   1.0000   1.0000
     1.0000   1.0000   1.0000   1.0000   1.0000   1.0000   1.0000   1.0000
     1.0000   1.0000   0.0000   0.0000   0.0000   0.0000   0.0000   0.0000
     0.0000   0.0000

          k =-0.1667 0.4811-0.1248 (  4099 PWs)   bands (ev):

    -6.6048  -6.6012  -5.0424  -5.0376  -4.1609  -4.1520   1.0234   1.0757
     1.4205   1.4929   2.3981   2.5599   2.8175   3.1874   3.6445   3.8367
     5.0960   5.1593   7.1527   7.2131   8.2348   8.2849   9.2853   9.3096
    10.1317  10.1871

     occupation numbers 
     1.0000   1.0000   1.0000   1.0000   1.0000   1.0000   1.0000   1.0000
     1.0000   1.0000   1.0000   1.0000   1.0000   1.0000   1.0000   1.0000
     1.0000   1.0000   0.0000   0.0000   0.0000   0.0000   0.0000   0.0000
     0.0000   0.0000

          k =-0.1667 0.4811-0.2496 (  4096 PWs)   bands (ev):

    -6.3848  -6.3787  -5.5018  -5.4946  -3.9314  -3.9237   0.8160   0.8890
     1.2124   1.2794   2.0611   2.1361   3.5246   3.7344   4.4428   4.5825
     5.3480   5.4786   6.9254   6.9586   8.0954   8.1596   8.5755   8.6188
    10.5985  10.6435

     occupation numbers 
     1.0000   1.0000   1.0000   1.0000   1.0000   1.0000   1.0000   1.0000
     1.0000   1.0000   1.0000   1.0000   1.0000   1.0000   1.0000   1.0000
     1.0000   1.0000   0.0000   0.0000   0.0000   0.0000   0.0000   0.0000
     0.0000   0.0000

          k =-0.3333 0.1924-0.1248 (  4102 PWs)   bands (ev):

    -6.9072  -6.9047  -5.1759  -5.1715  -3.7174  -3.7111   0.8971   0.9250
     1.3811   1.4780   2.4651   2.6017   4.2411   4.4950   4.7220   4.9981
     5.0135   5.2068   6.8034   6.8686   7.3002   7.4000   7.8997   7.9272
     9.3231   9.3843

     occupation numbers 
     1.0000   1.0000   1.0000   1.0000   1.0000   1.0000   1.0000   1.0000
     1.0000   1.0000   1.0000   1.0000   1.0000   1.0000   1.0000   1.0000
     1.0000   1.0000   0.0000   0.0000   0.0000   0.0000   0.0000   0.0000
     0.0000   0.0000

          k =-0.3333 0.1924-0.2496 (  4110 PWs)   bands (ev):

    -6.6398  -6.6350  -5.7448  -5.7385  -3.4119  -3.4056   0.7332   0.7773
     1.6213   1.7377   2.6104   2.7248   3.9721   4.1322   4.3588   4.4578
     5.7696   5.8226   6.6614   6.7279   7.3169   7.4497   7.8182   8.1540
     9.7992   9.9375

     occupation numbers 
     1.0000   1.0000   1.0000   1.0000   1.0000   1.0000   1.0000   1.0000
     1.0000   1.0000   1.0000   1.0000   1.0000   1.0000   1.0000   1.0000
     0.9999   0.9995   0.0000   0.0000   0.0000   0.0000   0.0000   0.0000
     0.0000   0.0000

          k =-0.3333 0.3849-0.1248 (  4099 PWs)   bands (ev):

    -6.5935  -6.5898  -5.1294  -5.1242  -4.0466  -4.0380   0.8301   0.8630
     1.3276   1.4281   2.3730   2.5039   3.1704   3.3379   4.0387   4.1697
     4.8700   4.9893   7.3039   7.3689   8.3360   8.3690   8.4855   8.5565
    10.0213  10.0760

     occupation numbers 
     1.0000   1.0000   1.0000   1.0000   1.0000   1.0000   1.0000   1.0000
     1.0000   1.0000   1.0000   1.0000   1.0000   1.0000   1.0000   1.0000
     1.0000   1.0000   0.0000   0.0000   0.0000   0.0000   0.0000   0.0000
     0.0000   0.0000

          k =-0.3333 0.3849-0.2496 (  4096 PWs)   bands (ev):

    -6.3609  -6.3541  -5.5696  -5.5614  -3.8485  -3.8408   0.5654   0.6078
     1.3109   1.3865   2.1076   2.1814   3.4156   3.5429   4.9790   5.1862
     5.5423   5.7986   6.6657   6.7296   7.4324   7.5030   8.5175   8.6269
    10.3382  10.4156

     occupation numbers 
     1.0000   1.0000   1.0000   1.0000   1.0000   1.0000   1.0000   1.0000
     1.0000   1.0000   1.0000   1.0000   1.0000   1.0000   1.0000   1.0000
     1.0000   0.9998   0.0000   0.0000   0.0000   0.0000   0.0000   0.0000
     0.0000   0.0000

          k = 0.5000-0.0962-0.1248 (  4099 PWs)   bands (ev):

    -6.6048  -6.6012  -5.0424  -5.0375  -4.1610  -4.1520   1.0234   1.0757
     1.4205   1.4929   2.3980   2.5599   2.8175   3.1873   3.6445   3.8367
     5.0960   5.1593   7.1527   7.2130   8.2347   8.2848   9.2853   9.3096
    10.1317  10.1871

     occupation numbers 
     1.0000   1.0000   1.0000   1.0000   1.0000   1.0000   1.0000   1.0000
     1.0000   1.0000   1.0000   1.0000   1.0000   1.0000   1.0000   1.0000
     1.0000   1.0000   0.0000   0.0000   0.0000   0.0000   0.0000   0.0000
     0.0000   0.0000

          k = 0.5000-0.0962-0.2496 (  4096 PWs)   bands (ev):

    -6.3848  -6.3787  -5.5018  -5.4946  -3.9314  -3.9237   0.8160   0.8890
     1.2124   1.2794   2.0611   2.1361   3.5246   3.7344   4.4428   4.5825
     5.3479   5.4785   6.9254   6.9586   8.0954   8.1596   8.5755   8.6188
    10.5985  10.6434

     occupation numbers 
     1.0000   1.0000   1.0000   1.0000   1.0000   1.0000   1.0000   1.0000
     1.0000   1.0000   1.0000   1.0000   1.0000   1.0000   1.0000   1.0000
     1.0000   1.0000   0.0000   0.0000   0.0000   0.0000   0.0000   0.0000
     0.0000   0.0000

     the Fermi energy is     6.1394 ev

!    total energy              =     -85.64377106 Ry
     estimated scf accuracy    <          6.3E-09 Ry
     smearing contrib. (-TS)   =      -0.00009288 Ry
     internal energy E=F+TS    =     -85.64367819 Ry

     The total energy is F=E-TS. E is the sum of the following terms:
     one-electron contribution =      10.19448943 Ry
     hartree contribution      =       3.36403220 Ry
     xc contribution           =     -49.70097863 Ry
     ewald contribution        =     -49.50122118 Ry

     convergence has been achieved in   8 iterations


     Computing stress (Cartesian axis) and pressure

          total   stress  (Ry/bohr**3)                   (kbar)     P=       23.70
   0.00014070   0.00000000   0.00000000           20.70        0.00        0.00
   0.00000000   0.00014068   0.00000001            0.00       20.69        0.00
   0.00000000   0.00000001   0.00020202            0.00        0.00       29.72

     kinetic stress (kbar)   2341.67      0.00      0.00
                                0.00   2341.67      0.00
                                0.00      0.00   2212.62

     local   stress (kbar)    161.29     -0.00     -0.00
                               -0.00    161.30     -0.01
                               -0.00     -0.01   -579.14

     nonloc. stress (kbar)   2370.41      0.00      0.00
                                0.00   2370.41      0.00
                                0.00      0.00   2360.40

     hartree stress (kbar)    180.26      0.00      0.00
                                0.00    180.26      0.00
                                0.00      0.00    358.82

     exc-cor stress (kbar)   7000.19      0.00      0.00
                                0.00   7000.19      0.00
                                0.00      0.00   7002.64

     corecor stress (kbar)  -8271.73     -0.00     -0.00
                               -0.00  -8271.73     -0.00
                               -0.00     -0.00  -8263.40

     ewald   stress (kbar)  -3761.39      0.00      0.00
                                0.00  -3761.39      0.01
                                0.00      0.01  -3062.23

     hubbard stress (kbar)      0.00      0.00      0.00
                                0.00      0.00      0.00
                                0.00      0.00      0.00

     DFT-D   stress (kbar)      0.00      0.00      0.00
                                0.00      0.00      0.00
                                0.00      0.00      0.00

     XDM     stress (kbar)      0.00      0.00      0.00
                                0.00      0.00      0.00
                                0.00      0.00      0.00

     dft-nl  stress (kbar)      0.00      0.00      0.00
                                0.00      0.00      0.00
                                0.00      0.00      0.00

     TS-vdW  stress (kbar)      0.00      0.00      0.00
                                0.00      0.00      0.00
                                0.00      0.00      0.00

     MDB     stress (kbar)      0.00      0.00      0.00
                                0.00      0.00      0.00
                                0.00      0.00      0.00

     3D-RISM stress (kbar)      0.00      0.00      0.00
                                0.00      0.00      0.00
                                0.00      0.00      0.00


     Writing all to output data dir /home/user/workspace/qe_runs/strain_pois_p0025/out/tepois_p0025.save/ :
     XML data file, charge density, pseudopotentials, collected wavefunctions

     init_run     :      3.38s CPU      3.60s WALL (       1 calls)
     electrons    :    103.72s CPU    108.43s WALL (       1 calls)
     stress       :      6.28s CPU      6.60s WALL (       1 calls)

     Called by init_run:
     wfcinit      :      2.47s CPU      2.59s WALL (       1 calls)
     wfcinit:atom :      0.03s CPU      0.03s WALL (      68 calls)
     wfcinit:wfcr :      2.35s CPU      2.46s WALL (      68 calls)
     potinit      :      0.18s CPU      0.18s WALL (       1 calls)
     hinit0       :      0.46s CPU      0.46s WALL (       1 calls)

     Called by electrons:
     c_bands      :     87.41s CPU     89.83s WALL (       8 calls)
     sum_band     :     13.93s CPU     15.47s WALL (       8 calls)
     v_of_rho     :      0.22s CPU      0.23s WALL (       9 calls)
     v_h          :      0.01s CPU      0.01s WALL (       9 calls)
     v_xc         :      0.23s CPU      0.25s WALL (      10 calls)
     newd         :      2.26s CPU      3.06s WALL (       9 calls)
     mix_rho      :      0.11s CPU      0.12s WALL (       8 calls)

     Called by c_bands:
     init_us_2    :      1.14s CPU      1.17s WALL (    1224 calls)
     cegterg      :     73.76s CPU     76.08s WALL (     544 calls)

     Called by sum_band:
     sum_band:wei :      0.01s CPU      0.01s WALL (       8 calls)
     sum_band:loo :     11.79s CPU     12.15s WALL (       8 calls)
     sum_band:buf :      0.16s CPU      0.16s WALL (     544 calls)
     sum_band:ini :      0.50s CPU      0.51s WALL (     544 calls)
     sum_band:cal :      1.09s CPU      1.12s WALL (     544 calls)
     sum_band:bec :      1.27s CPU      1.30s WALL (     544 calls)
     addusdens    :      2.06s CPU      3.23s WALL (       8 calls)
                                        0.00s GPU  (       8 calls)
     addusd:skk   :      0.00s CPU      0.00s WALL (       8 calls)
                                        0.00s GPU  (       8 calls)

     Called by *egterg:
     cdiaghg      :      2.27s CPU      2.30s WALL (    3145 calls)
     cegterg:over :      3.37s CPU      3.42s WALL (    2601 calls)
     cegterg:upda :      1.98s CPU      2.02s WALL (    2601 calls)
     cegterg:last :      3.81s CPU      3.83s WALL (    1531 calls)
     h_psi        :     58.46s CPU     60.62s WALL (    3213 calls)
     s_psi        :      3.58s CPU      3.66s WALL (    3213 calls)
     g_psi        :      0.70s CPU      0.71s WALL (    2601 calls)

     Called by h_psi:
     h_psi:calbec :      4.12s CPU      4.30s WALL (    3213 calls)
     vloc_psi     :     50.35s CPU     52.21s WALL (    3213 calls)
                                        0.00s GPU  (    3213 calls)
     add_vuspsi   :      3.56s CPU      3.66s WALL (    3213 calls)

     General routines
     calbec       :      7.01s CPU      7.25s WALL (    4641 calls)
     fft          :      0.36s CPU      0.37s WALL (     228 calls)
     ffts         :      0.16s CPU      0.16s WALL (      68 calls)
     fftw         :     50.43s CPU     52.27s WALL (  223460 calls)
     interpolate  :      0.17s CPU      0.18s WALL (      36 calls)

     Parallel routines

     PWSCF        :   1m53.60s CPU   1m59.00s WALL


   This run was terminated on:   8:16:22  20Aug2026            

=------------------------------------------------------------------------------=
   JOB DONE.
=------------------------------------------------------------------------------=
