
     Program PWSCF v.7.5 starts on 20Aug2026 at  8:16:23 

     This program is part of the open-source Quantum ESPRESSO suite
     for quantum simulation of materials; please cite
         "P. Giannozzi et al., J. Phys.:Condens. Matter 21 395502 (2009);
         "P. Giannozzi et al., J. Phys.:Condens. Matter 29 465901 (2017);
         "P. Giannozzi et al., J. Chem. Phys. 152 154105 (2020);
          URL http://www.quantum-espresso.org", 
     in publications or presentations arising from this work. More details at
     http://www.quantum-espresso.org/quote

     Parallel version (MPI & OpenMP), running on       2 processor cores
     Number of MPI processes:                 2
     Threads/MPI process:                     1

     MPI processes distributed on     1 nodes
     1009 MiB available memory on the printing compute node when the environment starts

     Reading input from strain_pois_p0025/bands.in

     Current dimensions of program PWSCF are:
     Max number of different atomic species (ntypx) = 10
     Max number of k-points (npk) =  40000
     Max angular momentum in pseudopotentials (lmaxx) =  4
     file Te.rel-pbe-n-rrkjus_psl.1.0.0.UPF: wavefunction(s)  5S renormalized

     Atomic positions and unit cell read from directory:
     /home/user/workspace/qe_runs/strain_pois_p0025/out/tepois_p0025.save/

     Message from routine setup:
     using ibrav=0 with symmetry is DISCOURAGED, use correct ibrav instead

     R & G space division:  proc/nbgrp/npool/nimage =       2
     Subspace diagonalization in iterative solution of the eigenvalue problem:
     a serial algorithm will be used


     Parallelization info
     --------------------
     sticks:   dense  smooth     PW     G-vecs:    dense   smooth      PW
     Min         740     483    147                30165    16402    2698
     Max         743     484    148                30166    16403    2699
     Sum        1483     967    295                60331    32805    5397

     Using Slab Decomposition



     bravais-lattice index     =            0
     lattice parameter (alat)  =       8.4097  a.u.
     unit-cell volume          =     687.9429 (a.u.)^3
     number of atoms/cell      =            3
     number of atomic types    =            1
     number of electrons       =        18.00
     number of Kohn-Sham states=           28
     kinetic-energy cutoff     =      50.0000  Ry
     charge density cutoff     =     300.0000  Ry
     Exchange-correlation= PBE
                           (   1   4   3   4   0   0   0)
     Non magnetic calculation with spin-orbit


     celldm(1)=   8.409659  celldm(2)=   0.000000  celldm(3)=   0.000000
     celldm(4)=   0.000000  celldm(5)=   0.000000  celldm(6)=   0.000000

     crystal axes: (cart. coord. in units of alat)
               a(1) = (   1.000000   0.000000   0.000000 )  
               a(2) = (  -0.500000   0.866029   0.000000 )  
               a(3) = (   0.000000   0.000000   1.335625 )  

     reciprocal axes: (cart. coord. in units 2 pi/alat)
               b(1) = (  1.000000  0.577348 -0.000000 )  
               b(2) = (  0.000000  1.154696  0.000000 )  
               b(3) = (  0.000000 -0.000000  0.748713 )  


     PseudoPot. # 1 for Te read from file:
     /home/user/workspace/qe_runs/pseudo/Te.rel-pbe-n-rrkjus_psl.1.0.0.UPF
     MD5 check sum: 7fd30b6833abd190471e4dcc2367351b
     Pseudo is Ultrasoft + core correction, Zval =  6.0
     Generated using &quot;atomic&quot; code by A. Dal Corso  v.6.3
     Using radial grid of 1245 points, 10 beta functions with: 
                l(1) =   0
                l(2) =   0
                l(3) =   1
                l(4) =   1
                l(5) =   1
                l(6) =   1
                l(7) =   2
                l(8) =   2
                l(9) =   2
               l(10) =   2
     Q(r) pseudized with 0 coefficients 


     atomic species   valence    mass     pseudopotential
     Te                6.00   127.60000     Te( 1.00)

      2 Sym. Ops. (no inversion) found ( 1 have fractional translation)


                                    s                        frac. trans.

      isym =  1     identity                                     

 cryst.   s( 1) = (     1          0          0      )
                  (     0          1          0      )
                  (     0          0          1      )

 cart.    s( 1) = (  1.0000000  0.0000000  0.0000000 )
                  (  0.0000000  1.0000000  0.0000000 )
                  (  0.0000000  0.0000000  1.0000000 )


      isym =  2     180 deg rotation - cart. axis [1,0,0]        

 cryst.   s( 2) = (     1          0          0      )    f =(  0.0000000 )
                  (    -1         -1          0      )       (  0.0000000 )
                  (     0          0         -1      )       (  0.3333334 )

 cart.    s( 2) = (  1.0000000  0.0000000  0.0000000 )    f =(  0.0000000 )
                  (  0.0000000 -1.0000000  0.0000000 )       (  0.0000000 )
                  (  0.0000000  0.0000000 -1.0000000 )       (  0.4452085 )


   Cartesian axes

     site n.     atom                  positions (alat units)
         1        Te     tau(   1) = (   0.2636000   0.0000000   0.4452084  )
         2        Te     tau(   2) = (  -0.1318000   0.2282853   0.8904170  )
         3        Te     tau(   3) = (  -0.1318000  -0.2282853   0.0000000  )

   Crystallographic axes

     site n.     atom                  positions (cryst. coord.)
         1        Te     tau(   1) = (  0.2636000  0.0000000  0.3333333  )
         2        Te     tau(   2) = (  0.0000000  0.2636000  0.6666667  )
         3        Te     tau(   3) = ( -0.2636000 -0.2636000  0.0000000  )

     number of k points=     7  Gaussian smearing, width (Ry)=  0.0100
                       cart. coord. in units 2pi/alat
        k(    1) = (   0.3333333   0.5773477   0.0000000), wk =   0.1428571
        k(    2) = (   0.3333333   0.5773477   0.1497426), wk =   0.1428571
        k(    3) = (   0.3333333   0.5773477   0.2994852), wk =   0.1428571
        k(    4) = (   0.3333333   0.5773477   0.3743565), wk =   0.1428571
        k(    5) = (   0.3333333   0.5773477   0.4492278), wk =   0.1428571
        k(    6) = (   0.3333333   0.5773477   0.5989704), wk =   0.1428571
        k(    7) = (   0.0000000   0.0000000   0.3743565), wk =   0.1428571

                       cryst. coord.
        k(    1) = (   0.3333333   0.3333333   0.0000000), wk =   0.1428571
        k(    2) = (   0.3333333   0.3333333   0.2000000), wk =   0.1428571
        k(    3) = (   0.3333333   0.3333333   0.4000000), wk =   0.1428571
        k(    4) = (   0.3333333   0.3333333   0.5000000), wk =   0.1428571
        k(    5) = (   0.3333333   0.3333333   0.6000000), wk =   0.1428571
        k(    6) = (   0.3333333   0.3333333   0.8000000), wk =   0.1428571
        k(    7) = (   0.0000000   0.0000000   0.5000000), wk =   0.1428571

     Dense  grid:    60331 G-vectors     FFT dimensions: (  48,  48,  72)

     Smooth grid:    32805 G-vectors     FFT dimensions: (  40,  40,  54)

     Dynamical RAM for                 wfc:       1.75 MB

     Dynamical RAM for     wfc (w. buffer):       1.75 MB

     Dynamical RAM for           str. fact:       0.46 MB

     Dynamical RAM for           local pot:       0.00 MB

     Dynamical RAM for          nlocal pot:       3.20 MB

     Dynamical RAM for                qrad:       3.64 MB

     Dynamical RAM for          rho,v,vnew:      13.12 MB

     Dynamical RAM for           G-vectors:       1.85 MB

     Dynamical RAM for          h,s,v(r/c):       0.14 MB

     Dynamical RAM for          <psi|beta>:       0.09 MB

     Dynamical RAM for                 psi:       3.51 MB

     Dynamical RAM for                hpsi:       3.51 MB

     Dynamical RAM for                spsi:       3.51 MB

     Dynamical RAM for      wfcinit/wfcrot:       2.65 MB

     Dynamical RAM for           addusdens:     282.16 MB

     Estimated static dynamical RAM per process >      30.00 MB

     Estimated max dynamical RAM per process >     312.17 MB

     Estimated total dynamical RAM >     624.33 MB

     The potential is recalculated from file :
     /home/user/workspace/qe_runs/strain_pois_p0025/out/tepois_p0025.save/charge-density

     Starting wfcs are   24 randomized atomic wfcs +    4 random wfcs

     Band Structure Calculation
     Davidson diagonalization with overlap

     Computing kpt #:     1  of     7
     total cpu time spent up to now is        2.0 secs

     Computing kpt #:     2  of     7
     total cpu time spent up to now is        2.7 secs

     Computing kpt #:     3  of     7
     total cpu time spent up to now is        3.5 secs

     Computing kpt #:     4  of     7
     total cpu time spent up to now is        4.6 secs

     Computing kpt #:     5  of     7
     total cpu time spent up to now is        5.4 secs

     Computing kpt #:     6  of     7
     total cpu time spent up to now is        6.1 secs

     Computing kpt #:     7  of     7
     total cpu time spent up to now is        6.8 secs

     ethr =  1.00E-06,  avg # of iterations = 35.4

     total cpu time spent up to now is        6.8 secs

     End of band structure calculation

          k = 0.3333 0.5773 0.0000 (  4116 PWs)   bands (ev):

    -6.4807  -6.4807  -4.6511  -4.6480  -4.6480  -4.6365   1.2393   1.4257
     1.4257   1.4410   2.7642   2.7642   2.8611   3.0643   3.0643   3.0907
     3.4459   3.4459   8.7464   8.7871   8.9532   8.9532   9.2021   9.2021
    10.8932  10.8932  11.8909  11.8909

          k = 0.3333 0.5773 0.1497 (  4125 PWs)   bands (ev):

    -6.3769  -6.3714  -5.1248  -5.1198  -4.2628  -4.2523   0.8790   0.9074
     1.2396   1.3860   1.9710   2.0855   3.0133   3.1935   4.0700   4.1323
     4.4580   4.6652   8.0153   8.1609   8.5978   8.6547   8.6637   8.7317
    11.1744  11.2257  11.6487  11.6853

          k = 0.3333 0.5773 0.2995 (  4104 PWs)   bands (ev):

    -6.0765  -6.0670  -5.6314  -5.6213  -4.0247  -4.0188   0.7829   0.7833
     0.8436   0.8844   1.1784   1.2845   4.3635   4.4678   5.3605   5.5695
     5.6252   5.9814   6.5844   6.6805   7.5309   7.6967   7.7892   7.8301
    11.8136  11.8341  12.0162  12.0619

          k = 0.3333 0.5773 0.3744 (  4110 PWs)   bands (ev):

    -5.8674  -5.8674  -5.8606  -5.8534  -3.9891  -3.9891   0.7468   0.7468
     0.8977   0.9510   1.0243   1.0243   4.8242   4.8242   5.8031   5.8031
     6.0521   6.1516   6.1516   6.1946   7.3148   7.3842   7.5430   7.5430
    11.9152  11.9152  12.5543  12.5608

          k = 0.3333 0.5773 0.4492 (  4104 PWs)   bands (ev):

    -6.0765  -6.0670  -5.6314  -5.6213  -4.0247  -4.0188   0.7829   0.7833
     0.8436   0.8844   1.1784   1.2845   4.3635   4.4678   5.3605   5.5695
     5.6252   5.9814   6.5844   6.6805   7.5309   7.6967   7.7892   7.8301
    11.8136  11.8341  12.0163  12.0619

          k = 0.3333 0.5773 0.5990 (  4125 PWs)   bands (ev):

    -6.3769  -6.3714  -5.1248  -5.1198  -4.2628  -4.2523   0.8790   0.9074
     1.2396   1.3860   1.9710   2.0855   3.0132   3.1935   4.0700   4.1323
     4.4580   4.6652   8.0153   8.1609   8.5978   8.6547   8.6637   8.7317
    11.1744  11.2257  11.6488  11.6853

          k = 0.0000 0.0000 0.3744 (  4142 PWs)   bands (ev):

    -6.7626  -6.7626  -6.7596  -6.7596  -2.1686  -2.1686   1.8170   1.8170
     3.1859   3.1859   3.4757   3.4757   4.5581   4.5581   4.8006   4.8006
     5.0834   5.0834   6.4588   6.4588   6.5728   6.5728   6.7953   6.7953
    10.0143  10.0143  11.3281  11.3281

     Writing all to output data dir /home/user/workspace/qe_runs/strain_pois_p0025/out/tepois_p0025.save/ :
     XML data file, pseudopotentials, collected wavefunctions

     init_run     :      0.93s CPU      1.05s WALL (       1 calls)
     electrons    :      5.48s CPU      5.62s WALL (       1 calls)

     Called by init_run:
     wfcinit      :      0.00s CPU      0.00s WALL (       1 calls)
     wfcinit:atom :      0.00s CPU      0.00s WALL (       7 calls)
     wfcinit:wfcr :      0.26s CPU      0.27s WALL (       7 calls)
     potinit      :      0.17s CPU      0.18s WALL (       1 calls)
     hinit0       :      0.48s CPU      0.50s WALL (       1 calls)

     Called by electrons:
     c_bands      :      5.48s CPU      5.62s WALL (       1 calls)
     v_of_rho     :      0.02s CPU      0.03s WALL (       1 calls)
     v_h          :      0.00s CPU      0.00s WALL (       1 calls)
     v_xc         :      0.02s CPU      0.03s WALL (       1 calls)
     newd         :      0.26s CPU      0.35s WALL (       1 calls)

     Called by c_bands:
     init_us_2    :      0.01s CPU      0.01s WALL (       7 calls)
     cegterg      :      5.03s CPU      5.16s WALL (      16 calls)

     Called by sum_band:

     Called by *egterg:
     cdiaghg      :      0.22s CPU      0.22s WALL (     255 calls)
     cegterg:over :      0.30s CPU      0.30s WALL (     248 calls)
     cegterg:upda :      0.18s CPU      0.19s WALL (     248 calls)
     cegterg:last :      0.35s CPU      0.35s WALL (     101 calls)
     h_psi        :      3.81s CPU      3.94s WALL (     271 calls)
     s_psi        :      0.25s CPU      0.25s WALL (     271 calls)
     g_psi        :      0.05s CPU      0.05s WALL (     248 calls)

     Called by h_psi:
     h_psi:calbec :      0.30s CPU      0.31s WALL (     271 calls)
     vloc_psi     :      3.25s CPU      3.36s WALL (     271 calls)
                                        0.00s GPU  (     271 calls)
     add_vuspsi   :      0.24s CPU      0.25s WALL (     271 calls)

     General routines
     calbec       :      0.30s CPU      0.31s WALL (     271 calls)
     fft          :      0.21s CPU      0.22s WALL (      19 calls)
     ffts         :      0.14s CPU      0.14s WALL (       4 calls)
     fftw         :      2.83s CPU      2.93s WALL (   12376 calls)
     interpolate  :      0.14s CPU      0.14s WALL (       4 calls)
     davcio       :      0.01s CPU      0.01s WALL (      14 calls)

     Parallel routines

     PWSCF        :      6.57s CPU      6.88s WALL


   This run was terminated on:   8:16:30  20Aug2026            

=------------------------------------------------------------------------------=
   JOB DONE.
=------------------------------------------------------------------------------=
