
     Program PWSCF v.7.5 starts on 20Aug2026 at  8:18:36 

     This program is part of the open-source Quantum ESPRESSO suite
     for quantum simulation of materials; please cite
         "P. Giannozzi et al., J. Phys.:Condens. Matter 21 395502 (2009);
         "P. Giannozzi et al., J. Phys.:Condens. Matter 29 465901 (2017);
         "P. Giannozzi et al., J. Chem. Phys. 152 154105 (2020);
          URL http://www.quantum-espresso.org", 
     in publications or presentations arising from this work. More details at
     http://www.quantum-espresso.org/quote

     Parallel version (MPI & OpenMP), running on       2 processor cores
     Number of MPI processes:                 2
     Threads/MPI process:                     1

     MPI processes distributed on     1 nodes
     944 MiB available memory on the printing compute node when the environment starts

     Reading input from strain_pois_p0050/bands.in

     Current dimensions of program PWSCF are:
     Max number of different atomic species (ntypx) = 10
     Max number of k-points (npk) =  40000
     Max angular momentum in pseudopotentials (lmaxx) =  4
     file Te.rel-pbe-n-rrkjus_psl.1.0.0.UPF: wavefunction(s)  5S renormalized

     Atomic positions and unit cell read from directory:
     /home/user/workspace/qe_runs/strain_pois_p0050/out/tepois_p0050.save/

     Message from routine setup:
     using ibrav=0 with symmetry is DISCOURAGED, use correct ibrav instead

     R & G space division:  proc/nbgrp/npool/nimage =       2
     Subspace diagonalization in iterative solution of the eigenvalue problem:
     a serial algorithm will be used


     Parallelization info
     --------------------
     sticks:   dense  smooth     PW     G-vecs:    dense   smooth      PW
     Min         729     477    147                30135    16399    2698
     Max         730     478    148                30138    16406    2699
     Sum        1459     955    295                60273    32805    5397

     Using Slab Decomposition



     bravais-lattice index     =            0
     lattice parameter (alat)  =       8.3964  a.u.
     unit-cell volume          =     687.4908 (a.u.)^3
     number of atoms/cell      =            3
     number of atomic types    =            1
     number of electrons       =        18.00
     number of Kohn-Sham states=           28
     kinetic-energy cutoff     =      50.0000  Ry
     charge density cutoff     =     300.0000  Ry
     Exchange-correlation= PBE
                           (   1   4   3   4   0   0   0)
     Non magnetic calculation with spin-orbit


     celldm(1)=   8.396431  celldm(2)=   0.000000  celldm(3)=   0.000000
     celldm(4)=   0.000000  celldm(5)=   0.000000  celldm(6)=   0.000000

     crystal axes: (cart. coord. in units of alat)
               a(1) = (   1.000000   0.000000   0.000000 )  
               a(2) = (  -0.500000   0.866033   0.000000 )  
               a(3) = (   0.000000   0.000000   1.341060 )  

     reciprocal axes: (cart. coord. in units 2 pi/alat)
               b(1) = (  1.000000  0.577345 -0.000000 )  
               b(2) = (  0.000000  1.154691  0.000000 )  
               b(3) = (  0.000000 -0.000000  0.745679 )  


     PseudoPot. # 1 for Te read from file:
     /home/user/workspace/qe_runs/pseudo/Te.rel-pbe-n-rrkjus_psl.1.0.0.UPF
     MD5 check sum: 7fd30b6833abd190471e4dcc2367351b
     Pseudo is Ultrasoft + core correction, Zval =  6.0
     Generated using &quot;atomic&quot; code by A. Dal Corso  v.6.3
     Using radial grid of 1245 points, 10 beta functions with: 
                l(1) =   0
                l(2) =   0
                l(3) =   1
                l(4) =   1
                l(5) =   1
                l(6) =   1
                l(7) =   2
                l(8) =   2
                l(9) =   2
               l(10) =   2
     Q(r) pseudized with 0 coefficients 


     atomic species   valence    mass     pseudopotential
     Te                6.00   127.60000     Te( 1.00)

      2 Sym. Ops. (no inversion) found ( 1 have fractional translation)


                                    s                        frac. trans.

      isym =  1     identity                                     

 cryst.   s( 1) = (     1          0          0      )
                  (     0          1          0      )
                  (     0          0          1      )

 cart.    s( 1) = (  1.0000000  0.0000000  0.0000000 )
                  (  0.0000000  1.0000000  0.0000000 )
                  (  0.0000000  0.0000000  1.0000000 )


      isym =  2     180 deg rotation - cart. axis [1,0,0]        

 cryst.   s( 2) = (     1          0          0      )    f =(  0.0000000 )
                  (    -1         -1          0      )       (  0.0000000 )
                  (     0          0         -1      )       (  0.3333334 )

 cart.    s( 2) = (  1.0000000  0.0000000  0.0000000 )    f =(  0.0000000 )
                  (  0.0000000 -1.0000000  0.0000000 )       (  0.0000000 )
                  (  0.0000000  0.0000000 -1.0000000 )       (  0.4470203 )


   Cartesian axes

     site n.     atom                  positions (alat units)
         1        Te     tau(   1) = (   0.2636000   0.0000000   0.4470201  )
         2        Te     tau(   2) = (  -0.1318000   0.2282862   0.8940404  )
         3        Te     tau(   3) = (  -0.1318000  -0.2282862   0.0000000  )

   Crystallographic axes

     site n.     atom                  positions (cryst. coord.)
         1        Te     tau(   1) = (  0.2636000  0.0000000  0.3333333  )
         2        Te     tau(   2) = (  0.0000000  0.2636000  0.6666667  )
         3        Te     tau(   3) = ( -0.2636000 -0.2636000  0.0000000  )

     number of k points=     7  Gaussian smearing, width (Ry)=  0.0100
                       cart. coord. in units 2pi/alat
        k(    1) = (   0.3333333   0.5773453   0.0000000), wk =   0.1428571
        k(    2) = (   0.3333333   0.5773453   0.1491357), wk =   0.1428571
        k(    3) = (   0.3333333   0.5773453   0.2982714), wk =   0.1428571
        k(    4) = (   0.3333333   0.5773453   0.3728393), wk =   0.1428571
        k(    5) = (   0.3333333   0.5773453   0.4474071), wk =   0.1428571
        k(    6) = (   0.3333333   0.5773453   0.5965428), wk =   0.1428571
        k(    7) = (   0.0000000   0.0000000   0.3728393), wk =   0.1428571

                       cryst. coord.
        k(    1) = (   0.3333333   0.3333333   0.0000000), wk =   0.1428571
        k(    2) = (   0.3333333   0.3333333   0.2000000), wk =   0.1428571
        k(    3) = (   0.3333333   0.3333333   0.4000000), wk =   0.1428571
        k(    4) = (   0.3333333   0.3333333   0.5000000), wk =   0.1428571
        k(    5) = (   0.3333333   0.3333333   0.6000000), wk =   0.1428571
        k(    6) = (   0.3333333   0.3333333   0.8000000), wk =   0.1428571
        k(    7) = (   0.0000000   0.0000000   0.5000000), wk =   0.1428571

     Dense  grid:    60273 G-vectors     FFT dimensions: (  48,  48,  72)

     Smooth grid:    32805 G-vectors     FFT dimensions: (  40,  40,  54)

     Dynamical RAM for                 wfc:       1.75 MB

     Dynamical RAM for     wfc (w. buffer):       1.75 MB

     Dynamical RAM for           str. fact:       0.46 MB

     Dynamical RAM for           local pot:       0.00 MB

     Dynamical RAM for          nlocal pot:       3.19 MB

     Dynamical RAM for                qrad:       3.64 MB

     Dynamical RAM for          rho,v,vnew:      13.11 MB

     Dynamical RAM for           G-vectors:       1.85 MB

     Dynamical RAM for          h,s,v(r/c):       0.14 MB

     Dynamical RAM for          <psi|beta>:       0.09 MB

     Dynamical RAM for                 psi:       3.51 MB

     Dynamical RAM for                hpsi:       3.51 MB

     Dynamical RAM for                spsi:       3.51 MB

     Dynamical RAM for      wfcinit/wfcrot:       2.65 MB

     Dynamical RAM for           addusdens:     281.87 MB

     Estimated static dynamical RAM per process >      29.99 MB

     Estimated max dynamical RAM per process >     311.86 MB

     Estimated total dynamical RAM >     623.73 MB

     The potential is recalculated from file :
     /home/user/workspace/qe_runs/strain_pois_p0050/out/tepois_p0050.save/charge-density

     Starting wfcs are   24 randomized atomic wfcs +    4 random wfcs

     Band Structure Calculation
     Davidson diagonalization with overlap

     Computing kpt #:     1  of     7
     total cpu time spent up to now is        2.1 secs

     Computing kpt #:     2  of     7
     total cpu time spent up to now is        2.8 secs

     Computing kpt #:     3  of     7
     total cpu time spent up to now is        3.5 secs

     Computing kpt #:     4  of     7
     total cpu time spent up to now is        4.6 secs

     Computing kpt #:     5  of     7
     total cpu time spent up to now is        5.3 secs

     Computing kpt #:     6  of     7
     total cpu time spent up to now is        6.0 secs

     Computing kpt #:     7  of     7
     total cpu time spent up to now is        6.8 secs

     ethr =  1.00E-06,  avg # of iterations = 34.4

     total cpu time spent up to now is        6.8 secs

     End of band structure calculation

          k = 0.3333 0.5773 0.0000 (  4104 PWs)   bands (ev):

    -6.4662  -6.4662  -4.6444  -4.6413  -4.6413  -4.6298   1.2432   1.4288
     1.4288   1.4445   2.7643   2.7643   2.8615   3.0667   3.0667   3.0904
     3.4441   3.4441   8.7525   8.7927   8.9589   8.9589   9.2096   9.2096
    10.9194  10.9194  11.9130  11.9130

          k = 0.3333 0.5773 0.1491 (  4125 PWs)   bands (ev):

    -6.3629  -6.3575  -5.1167  -5.1117  -4.2569  -4.2465   0.8856   0.9141
     1.2438   1.3897   1.9748   2.0891   3.0102   3.1905   4.0691   4.1308
     4.4569   4.6635   8.0090   8.1541   8.6038   8.6603   8.6682   8.7386
    11.1973  11.2489  11.6734  11.7079

          k = 0.3333 0.5773 0.2983 (  4092 PWs)   bands (ev):

    -6.0642  -6.0547  -5.6213  -5.6113  -4.0196  -4.0138   0.7894   0.7911
     0.8498   0.8920   1.1849   1.2911   4.3567   4.4618   5.3607   5.5689
     5.6265   5.9820   6.5699   6.6664   7.5304   7.6940   7.7910   7.8290
    11.8353  11.8564  12.0290  12.0752

          k = 0.3333 0.5773 0.3728 (  4110 PWs)   bands (ev):

    -5.8562  -5.8562  -5.8495  -5.8422  -3.9842  -3.9841   0.7533   0.7533
     0.9051   0.9585   1.0318   1.0318   4.8191   4.8191   5.8038   5.8039
     6.0532   6.1365   6.1365   6.1970   7.3123   7.3836   7.5386   7.5386
    11.9348  11.9348  12.5606  12.5681

          k = 0.3333 0.5773 0.4474 (  4092 PWs)   bands (ev):

    -6.0642  -6.0547  -5.6213  -5.6113  -4.0196  -4.0138   0.7894   0.7911
     0.8498   0.8920   1.1849   1.2911   4.3567   4.4618   5.3607   5.5689
     5.6265   5.9820   6.5699   6.6664   7.5304   7.6940   7.7910   7.8290
    11.8353  11.8564  12.0290  12.0751

          k = 0.3333 0.5773 0.5965 (  4125 PWs)   bands (ev):

    -6.3629  -6.3575  -5.1167  -5.1117  -4.2569  -4.2465   0.8856   0.9141
     1.2438   1.3897   1.9748   2.0891   3.0102   3.1905   4.0691   4.1308
     4.4569   4.6635   8.0090   8.1541   8.6038   8.6603   8.6682   8.7386
    11.1973  11.2489  11.6734  11.7079

          k = 0.0000 0.0000 0.3728 (  4118 PWs)   bands (ev):

    -6.7581  -6.7581  -6.7551  -6.7551  -2.1659  -2.1659   1.8108   1.8108
     3.2064   3.2064   3.4981   3.4981   4.5690   4.5690   4.8206   4.8206
     5.1056   5.1056   6.4696   6.4696   6.5941   6.5941   6.8126   6.8126
    10.0091  10.0091  11.3495  11.3497

     Writing all to output data dir /home/user/workspace/qe_runs/strain_pois_p0050/out/tepois_p0050.save/ :
     XML data file, pseudopotentials, collected wavefunctions

     init_run     :      0.92s CPU      1.12s WALL (       1 calls)
     electrons    :      5.35s CPU      5.50s WALL (       1 calls)

     Called by init_run:
     wfcinit      :      0.00s CPU      0.00s WALL (       1 calls)
     wfcinit:atom :      0.00s CPU      0.00s WALL (       7 calls)
     wfcinit:wfcr :      0.29s CPU      0.29s WALL (       7 calls)
     potinit      :      0.18s CPU      0.19s WALL (       1 calls)
     hinit0       :      0.47s CPU      0.47s WALL (       1 calls)

     Called by electrons:
     c_bands      :      5.35s CPU      5.50s WALL (       1 calls)
     v_of_rho     :      0.03s CPU      0.03s WALL (       1 calls)
     v_h          :      0.00s CPU      0.00s WALL (       1 calls)
     v_xc         :      0.03s CPU      0.03s WALL (       1 calls)
     newd         :      0.26s CPU      0.44s WALL (       1 calls)

     Called by c_bands:
     init_us_2    :      0.01s CPU      0.01s WALL (       7 calls)
     cegterg      :      4.88s CPU      5.02s WALL (      16 calls)

     Called by sum_band:

     Called by *egterg:
     cdiaghg      :      0.21s CPU      0.21s WALL (     248 calls)
     cegterg:over :      0.27s CPU      0.28s WALL (     241 calls)
     cegterg:upda :      0.17s CPU      0.17s WALL (     241 calls)
     cegterg:last :      0.34s CPU      0.35s WALL (     101 calls)
     h_psi        :      3.78s CPU      3.90s WALL (     264 calls)
     s_psi        :      0.24s CPU      0.24s WALL (     264 calls)
     g_psi        :      0.05s CPU      0.05s WALL (     241 calls)

     Called by h_psi:
     h_psi:calbec :      0.28s CPU      0.28s WALL (     264 calls)
     vloc_psi     :      3.25s CPU      3.36s WALL (     264 calls)
                                        0.00s GPU  (     264 calls)
     add_vuspsi   :      0.23s CPU      0.24s WALL (     264 calls)

     General routines
     calbec       :      0.28s CPU      0.28s WALL (     264 calls)
     fft          :      0.22s CPU      0.22s WALL (      19 calls)
     ffts         :      0.14s CPU      0.14s WALL (       4 calls)
     fftw         :      2.85s CPU      2.94s WALL (   12224 calls)
     interpolate  :      0.14s CPU      0.14s WALL (       4 calls)
     davcio       :      0.01s CPU      0.02s WALL (      14 calls)

     Parallel routines

     PWSCF        :      6.45s CPU      8.26s WALL


   This run was terminated on:   8:18:44  20Aug2026            

=------------------------------------------------------------------------------=
   JOB DONE.
=------------------------------------------------------------------------------=
