
     Program PWSCF v.7.5 starts on 20Aug2026 at  8:16:31 

     This program is part of the open-source Quantum ESPRESSO suite
     for quantum simulation of materials; please cite
         "P. Giannozzi et al., J. Phys.:Condens. Matter 21 395502 (2009);
         "P. Giannozzi et al., J. Phys.:Condens. Matter 29 465901 (2017);
         "P. Giannozzi et al., J. Chem. Phys. 152 154105 (2020);
          URL http://www.quantum-espresso.org", 
     in publications or presentations arising from this work. More details at
     http://www.quantum-espresso.org/quote

     Parallel version (MPI & OpenMP), running on       2 processor cores
     Number of MPI processes:                 2
     Threads/MPI process:                     1

     MPI processes distributed on     1 nodes
     979 MiB available memory on the printing compute node when the environment starts

     Reading input from strain_pois_p0050/scf.in

     Current dimensions of program PWSCF are:
     Max number of different atomic species (ntypx) = 10
     Max number of k-points (npk) =  40000
     Max angular momentum in pseudopotentials (lmaxx) =  4
     file Te.rel-pbe-n-rrkjus_psl.1.0.0.UPF: wavefunction(s)  5S renormalized
     Message from routine setup:
     using ibrav=0 with symmetry is DISCOURAGED, use correct ibrav instead

     R & G space division:  proc/nbgrp/npool/nimage =       2
     Subspace diagonalization in iterative solution of the eigenvalue problem:
     a serial algorithm will be used


     Parallelization info
     --------------------
     sticks:   dense  smooth     PW     G-vecs:    dense   smooth      PW
     Min         729     477    141                30135    16399    2589
     Max         730     478    142                30138    16406    2592
     Sum        1459     955    283                60273    32805    5181

     Using Slab Decomposition



     bravais-lattice index     =            0
     lattice parameter (alat)  =       8.3964  a.u.
     unit-cell volume          =     687.4908 (a.u.)^3
     number of atoms/cell      =            3
     number of atomic types    =            1
     number of electrons       =        18.00
     number of Kohn-Sham states=           26
     kinetic-energy cutoff     =      50.0000  Ry
     charge density cutoff     =     300.0000  Ry
     scf convergence threshold =      1.0E-08
     mixing beta               =       0.4000
     number of iterations used =            8  plain     mixing
     Exchange-correlation= PBE
                           (   1   4   3   4   0   0   0)
     Non magnetic calculation with spin-orbit


     celldm(1)=   8.396431  celldm(2)=   0.000000  celldm(3)=   0.000000
     celldm(4)=   0.000000  celldm(5)=   0.000000  celldm(6)=   0.000000

     crystal axes: (cart. coord. in units of alat)
               a(1) = (   1.000000   0.000000   0.000000 )  
               a(2) = (  -0.500000   0.866033   0.000000 )  
               a(3) = (   0.000000   0.000000   1.341060 )  

     reciprocal axes: (cart. coord. in units 2 pi/alat)
               b(1) = (  1.000000  0.577345 -0.000000 )  
               b(2) = (  0.000000  1.154691  0.000000 )  
               b(3) = (  0.000000 -0.000000  0.745679 )  


     PseudoPot. # 1 for Te read from file:
     /home/user/workspace/qe_runs/pseudo/Te.rel-pbe-n-rrkjus_psl.1.0.0.UPF
     MD5 check sum: 7fd30b6833abd190471e4dcc2367351b
     Pseudo is Ultrasoft + core correction, Zval =  6.0
     Generated using &quot;atomic&quot; code by A. Dal Corso  v.6.3
     Using radial grid of 1245 points, 10 beta functions with: 
                l(1) =   0
                l(2) =   0
                l(3) =   1
                l(4) =   1
                l(5) =   1
                l(6) =   1
                l(7) =   2
                l(8) =   2
                l(9) =   2
               l(10) =   2
     Q(r) pseudized with 0 coefficients 


     atomic species   valence    mass     pseudopotential
     Te                6.00   127.60000     Te( 1.00)

      2 Sym. Ops. (no inversion) found ( 1 have fractional translation)


                                    s                        frac. trans.

      isym =  1     identity                                     

 cryst.   s( 1) = (     1          0          0      )
                  (     0          1          0      )
                  (     0          0          1      )

 cart.    s( 1) = (  1.0000000  0.0000000  0.0000000 )
                  (  0.0000000  1.0000000  0.0000000 )
                  (  0.0000000  0.0000000  1.0000000 )


      isym =  2     180 deg rotation - cart. axis [1,0,0]        

 cryst.   s( 2) = (     1          0          0      )    f =(  0.0000000 )
                  (    -1         -1          0      )       (  0.0000000 )
                  (     0          0         -1      )       (  0.3333334 )

 cart.    s( 2) = (  1.0000000  0.0000000  0.0000000 )    f =(  0.0000000 )
                  (  0.0000000 -1.0000000  0.0000000 )       (  0.0000000 )
                  (  0.0000000  0.0000000 -1.0000000 )       (  0.4470203 )


   Cartesian axes

     site n.     atom                  positions (alat units)
         1        Te     tau(   1) = (   0.2636000   0.0000000   0.4470201  )
         2        Te     tau(   2) = (  -0.1318000   0.2282862   0.8940404  )
         3        Te     tau(   3) = (  -0.1318000  -0.2282862   0.0000000  )

   Crystallographic axes

     site n.     atom                  positions (cryst. coord.)
         1        Te     tau(   1) = (  0.2636000  0.0000000  0.3333333  )
         2        Te     tau(   2) = (  0.0000000  0.2636000  0.6666667  )
         3        Te     tau(   3) = ( -0.2636000 -0.2636000  0.0000000  )

     number of k points=    68  Gaussian smearing, width (Ry)=  0.0100
                       cart. coord. in units 2pi/alat
        k(    1) = (   0.0000000   0.0000000   0.0000000), wk =   0.0046296
        k(    2) = (   0.0000000   0.0000000   0.1242798), wk =   0.0092593
        k(    3) = (   0.0000000   0.0000000   0.2485595), wk =   0.0092593
        k(    4) = (   0.0000000   0.0000000  -0.3728393), wk =   0.0046296
        k(    5) = (   0.0000000   0.1924484   0.0000000), wk =   0.0092593
        k(    6) = (   0.0000000   0.1924484   0.1242798), wk =   0.0092593
        k(    7) = (   0.0000000   0.1924484   0.2485595), wk =   0.0092593
        k(    8) = (   0.0000000   0.1924484  -0.3728393), wk =   0.0092593
        k(    9) = (   0.0000000   0.3848969   0.0000000), wk =   0.0092593
        k(   10) = (   0.0000000   0.3848969   0.1242798), wk =   0.0092593
        k(   11) = (   0.0000000   0.3848969   0.2485595), wk =   0.0092593
        k(   12) = (   0.0000000   0.3848969  -0.3728393), wk =   0.0092593
        k(   13) = (   0.0000000  -0.5773453   0.0000000), wk =   0.0046296
        k(   14) = (   0.0000000  -0.5773453   0.1242798), wk =   0.0092593
        k(   15) = (   0.0000000  -0.5773453   0.2485595), wk =   0.0092593
        k(   16) = (   0.0000000  -0.5773453  -0.3728393), wk =   0.0046296
        k(   17) = (   0.1666667   0.0962242   0.0000000), wk =   0.0185185
        k(   18) = (   0.1666667   0.0962242   0.1242798), wk =   0.0185185
        k(   19) = (   0.1666667   0.0962242   0.2485595), wk =   0.0185185
        k(   20) = (   0.1666667   0.0962242  -0.3728393), wk =   0.0185185
        k(   21) = (   0.1666667   0.2886727   0.0000000), wk =   0.0185185
        k(   22) = (   0.1666667   0.2886727   0.1242798), wk =   0.0185185
        k(   23) = (   0.1666667   0.2886727   0.2485595), wk =   0.0185185
        k(   24) = (   0.1666667   0.2886727  -0.3728393), wk =   0.0185185
        k(   25) = (   0.1666667   0.4811211   0.0000000), wk =   0.0185185
        k(   26) = (   0.1666667   0.4811211   0.1242798), wk =   0.0185185
        k(   27) = (   0.1666667   0.4811211   0.2485595), wk =   0.0185185
        k(   28) = (   0.1666667   0.4811211  -0.3728393), wk =   0.0185185
        k(   29) = (   0.3333333   0.1924484   0.0000000), wk =   0.0185185
        k(   30) = (   0.3333333   0.1924484   0.1242798), wk =   0.0185185
        k(   31) = (   0.3333333   0.1924484   0.2485595), wk =   0.0185185
        k(   32) = (   0.3333333   0.1924484  -0.3728393), wk =   0.0185185
        k(   33) = (   0.3333333   0.3848969   0.0000000), wk =   0.0185185
        k(   34) = (   0.3333333   0.3848969   0.1242798), wk =   0.0185185
        k(   35) = (   0.3333333   0.3848969   0.2485595), wk =   0.0185185
        k(   36) = (   0.3333333   0.3848969  -0.3728393), wk =   0.0185185
        k(   37) = (   0.3333333   0.5773453   0.0000000), wk =   0.0092593
        k(   38) = (   0.3333333   0.5773453   0.1242798), wk =   0.0185185
        k(   39) = (   0.3333333   0.5773453   0.2485595), wk =   0.0185185
        k(   40) = (   0.3333333   0.5773453  -0.3728393), wk =   0.0092593
        k(   41) = (   0.3333333   0.0000000   0.0000000), wk =   0.0092593
        k(   42) = (   0.3333333   0.0000000   0.1242798), wk =   0.0185185
        k(   43) = (   0.3333333   0.0000000   0.2485595), wk =   0.0185185
        k(   44) = (   0.3333333   0.0000000  -0.3728393), wk =   0.0092593
        k(   45) = (  -0.5000000  -0.2886727   0.0000000), wk =   0.0092593
        k(   46) = (  -0.5000000  -0.2886727   0.1242798), wk =   0.0185185
        k(   47) = (  -0.5000000  -0.2886727   0.2485595), wk =   0.0185185
        k(   48) = (  -0.5000000  -0.2886727  -0.3728393), wk =   0.0092593
        k(   49) = (  -0.5000000  -0.0962242   0.0000000), wk =   0.0185185
        k(   50) = (  -0.5000000  -0.0962242   0.1242798), wk =   0.0185185
        k(   51) = (  -0.5000000  -0.0962242   0.2485595), wk =   0.0185185
        k(   52) = (  -0.5000000  -0.0962242  -0.3728393), wk =   0.0185185
        k(   53) = (   0.0000000   0.1924484  -0.1242798), wk =   0.0092593
        k(   54) = (   0.0000000   0.1924484  -0.2485595), wk =   0.0092593
        k(   55) = (   0.0000000   0.3848969  -0.1242798), wk =   0.0092593
        k(   56) = (   0.0000000   0.3848969  -0.2485595), wk =   0.0092593
        k(   57) = (  -0.1666667   0.0962242  -0.1242798), wk =   0.0185185
        k(   58) = (  -0.1666667   0.0962242  -0.2485595), wk =   0.0185185
        k(   59) = (  -0.1666667   0.2886727  -0.1242798), wk =   0.0185185
        k(   60) = (  -0.1666667   0.2886727  -0.2485595), wk =   0.0185185
        k(   61) = (  -0.1666667   0.4811211  -0.1242798), wk =   0.0185185
        k(   62) = (  -0.1666667   0.4811211  -0.2485595), wk =   0.0185185
        k(   63) = (  -0.3333333   0.1924484  -0.1242798), wk =   0.0185185
        k(   64) = (  -0.3333333   0.1924484  -0.2485595), wk =   0.0185185
        k(   65) = (  -0.3333333   0.3848969  -0.1242798), wk =   0.0185185
        k(   66) = (  -0.3333333   0.3848969  -0.2485595), wk =   0.0185185
        k(   67) = (   0.5000000  -0.0962242  -0.1242798), wk =   0.0185185
        k(   68) = (   0.5000000  -0.0962242  -0.2485595), wk =   0.0185185

                       cryst. coord.
        k(    1) = (   0.0000000   0.0000000   0.0000000), wk =   0.0046296
        k(    2) = (   0.0000000   0.0000000   0.1666667), wk =   0.0092593
        k(    3) = (   0.0000000   0.0000000   0.3333333), wk =   0.0092593
        k(    4) = (   0.0000000   0.0000000  -0.5000000), wk =   0.0046296
        k(    5) = (   0.0000000   0.1666667   0.0000000), wk =   0.0092593
        k(    6) = (   0.0000000   0.1666667   0.1666667), wk =   0.0092593
        k(    7) = (   0.0000000   0.1666667   0.3333333), wk =   0.0092593
        k(    8) = (   0.0000000   0.1666667  -0.5000000), wk =   0.0092593
        k(    9) = (   0.0000000   0.3333333   0.0000000), wk =   0.0092593
        k(   10) = (   0.0000000   0.3333333   0.1666667), wk =   0.0092593
        k(   11) = (   0.0000000   0.3333333   0.3333333), wk =   0.0092593
        k(   12) = (   0.0000000   0.3333333  -0.5000000), wk =   0.0092593
        k(   13) = (   0.0000000  -0.5000000   0.0000000), wk =   0.0046296
        k(   14) = (   0.0000000  -0.5000000   0.1666667), wk =   0.0092593
        k(   15) = (   0.0000000  -0.5000000   0.3333333), wk =   0.0092593
        k(   16) = (   0.0000000  -0.5000000  -0.5000000), wk =   0.0046296
        k(   17) = (   0.1666667   0.0000000   0.0000000), wk =   0.0185185
        k(   18) = (   0.1666667   0.0000000   0.1666667), wk =   0.0185185
        k(   19) = (   0.1666667   0.0000000   0.3333333), wk =   0.0185185
        k(   20) = (   0.1666667   0.0000000  -0.5000000), wk =   0.0185185
        k(   21) = (   0.1666667   0.1666667   0.0000000), wk =   0.0185185
        k(   22) = (   0.1666667   0.1666667   0.1666667), wk =   0.0185185
        k(   23) = (   0.1666667   0.1666667   0.3333333), wk =   0.0185185
        k(   24) = (   0.1666667   0.1666667  -0.5000000), wk =   0.0185185
        k(   25) = (   0.1666667   0.3333333   0.0000000), wk =   0.0185185
        k(   26) = (   0.1666667   0.3333333   0.1666667), wk =   0.0185185
        k(   27) = (   0.1666667   0.3333333   0.3333333), wk =   0.0185185
        k(   28) = (   0.1666667   0.3333333  -0.5000000), wk =   0.0185185
        k(   29) = (   0.3333333   0.0000000   0.0000000), wk =   0.0185185
        k(   30) = (   0.3333333   0.0000000   0.1666667), wk =   0.0185185
        k(   31) = (   0.3333333   0.0000000   0.3333333), wk =   0.0185185
        k(   32) = (   0.3333333   0.0000000  -0.5000000), wk =   0.0185185
        k(   33) = (   0.3333333   0.1666667   0.0000000), wk =   0.0185185
        k(   34) = (   0.3333333   0.1666667   0.1666667), wk =   0.0185185
        k(   35) = (   0.3333333   0.1666667   0.3333333), wk =   0.0185185
        k(   36) = (   0.3333333   0.1666667  -0.5000000), wk =   0.0185185
        k(   37) = (   0.3333333   0.3333333   0.0000000), wk =   0.0092593
        k(   38) = (   0.3333333   0.3333333   0.1666667), wk =   0.0185185
        k(   39) = (   0.3333333   0.3333333   0.3333333), wk =   0.0185185
        k(   40) = (   0.3333333   0.3333333  -0.5000000), wk =   0.0092593
        k(   41) = (   0.3333333  -0.1666667   0.0000000), wk =   0.0092593
        k(   42) = (   0.3333333  -0.1666667   0.1666667), wk =   0.0185185
        k(   43) = (   0.3333333  -0.1666667   0.3333333), wk =   0.0185185
        k(   44) = (   0.3333333  -0.1666667  -0.5000000), wk =   0.0092593
        k(   45) = (  -0.5000000  -0.0000000   0.0000000), wk =   0.0092593
        k(   46) = (  -0.5000000  -0.0000000   0.1666667), wk =   0.0185185
        k(   47) = (  -0.5000000  -0.0000000   0.3333333), wk =   0.0185185
        k(   48) = (  -0.5000000  -0.0000000  -0.5000000), wk =   0.0092593
        k(   49) = (  -0.5000000   0.1666667   0.0000000), wk =   0.0185185
        k(   50) = (  -0.5000000   0.1666667   0.1666667), wk =   0.0185185
        k(   51) = (  -0.5000000   0.1666667   0.3333333), wk =   0.0185185
        k(   52) = (  -0.5000000   0.1666667  -0.5000000), wk =   0.0185185
        k(   53) = (   0.0000000   0.1666667  -0.1666667), wk =   0.0092593
        k(   54) = (   0.0000000   0.1666667  -0.3333333), wk =   0.0092593
        k(   55) = (   0.0000000   0.3333333  -0.1666667), wk =   0.0092593
        k(   56) = (   0.0000000   0.3333333  -0.3333333), wk =   0.0092593
        k(   57) = (  -0.1666667   0.1666667  -0.1666667), wk =   0.0185185
        k(   58) = (  -0.1666667   0.1666667  -0.3333333), wk =   0.0185185
        k(   59) = (  -0.1666667   0.3333333  -0.1666667), wk =   0.0185185
        k(   60) = (  -0.1666667   0.3333333  -0.3333333), wk =   0.0185185
        k(   61) = (  -0.1666667   0.5000000  -0.1666667), wk =   0.0185185
        k(   62) = (  -0.1666667   0.5000000  -0.3333333), wk =   0.0185185
        k(   63) = (  -0.3333333   0.3333333  -0.1666667), wk =   0.0185185
        k(   64) = (  -0.3333333   0.3333333  -0.3333333), wk =   0.0185185
        k(   65) = (  -0.3333333   0.5000000  -0.1666667), wk =   0.0185185
        k(   66) = (  -0.3333333   0.5000000  -0.3333333), wk =   0.0185185
        k(   67) = (   0.5000000  -0.3333333  -0.1666667), wk =   0.0185185
        k(   68) = (   0.5000000  -0.3333333  -0.3333333), wk =   0.0185185

     Dense  grid:    60273 G-vectors     FFT dimensions: (  48,  48,  72)

     Smooth grid:    32805 G-vectors     FFT dimensions: (  40,  40,  54)

     Dynamical RAM for                 wfc:       1.63 MB

     Dynamical RAM for     wfc (w. buffer):     112.34 MB

     Dynamical RAM for           str. fact:       0.46 MB

     Dynamical RAM for           local pot:       0.00 MB

     Dynamical RAM for          nlocal pot:       3.19 MB

     Dynamical RAM for                qrad:       3.64 MB

     Dynamical RAM for          rho,v,vnew:      13.11 MB

     Dynamical RAM for               rhoin:       4.37 MB

     Dynamical RAM for            rho*nmix:      29.43 MB

     Dynamical RAM for           G-vectors:       1.85 MB

     Dynamical RAM for          h,s,v(r/c):       0.12 MB

     Dynamical RAM for          <psi|beta>:       0.08 MB

     Dynamical RAM for                 psi:       3.26 MB

     Dynamical RAM for                hpsi:       3.26 MB

     Dynamical RAM for                spsi:       3.26 MB

     Dynamical RAM for      wfcinit/wfcrot:       2.46 MB

     Dynamical RAM for           addusdens:     281.87 MB

     Dynamical RAM for         addusstress:     288.77 MB

     Estimated static dynamical RAM per process >     144.95 MB

     Estimated max dynamical RAM per process >     463.15 MB

     Estimated total dynamical RAM >     926.30 MB

     Initial potential from superposition of free atoms

     starting charge      17.9993, renormalised to      18.0000
     Starting wfcs are   24 randomized atomic wfcs +    2 random wfcs

     total cpu time spent up to now is        3.8 secs

     per-process dynamical memory:   163.8 Mb

     Self-consistent Calculation

     iteration #  1     ecut=    50.00 Ry     beta= 0.40
     Davidson diagonalization with overlap

---- Real-time Memory Report at c_bands before calling an iterative solver
           353 MiB given to the printing process from OS
           162 MiB allocation reported by mallinfo(arena+hblkhd)
           676 MiB available memory on the node where the printing process lives
------------------
     c_bands:  2 eigenvalues not converged
     c_bands:  1 eigenvalues not converged
     c_bands:  2 eigenvalues not converged
     c_bands:  1 eigenvalues not converged
     c_bands:  2 eigenvalues not converged
     c_bands:  2 eigenvalues not converged
     c_bands:  2 eigenvalues not converged
     c_bands:  2 eigenvalues not converged
     c_bands:  2 eigenvalues not converged
     c_bands:  2 eigenvalues not converged
     c_bands:  2 eigenvalues not converged
     c_bands:  2 eigenvalues not converged
     c_bands:  2 eigenvalues not converged
     c_bands:  2 eigenvalues not converged
     c_bands:  2 eigenvalues not converged
     c_bands:  2 eigenvalues not converged
     c_bands:  2 eigenvalues not converged
     c_bands:  2 eigenvalues not converged
     c_bands:  2 eigenvalues not converged
     c_bands:  2 eigenvalues not converged
     c_bands:  2 eigenvalues not converged
     c_bands:  2 eigenvalues not converged
     c_bands:  2 eigenvalues not converged
     c_bands:  2 eigenvalues not converged
     c_bands:  1 eigenvalues not converged
     c_bands:  2 eigenvalues not converged
     c_bands:  2 eigenvalues not converged
     c_bands:  1 eigenvalues not converged
     c_bands:  2 eigenvalues not converged
     c_bands:  2 eigenvalues not converged
     c_bands:  1 eigenvalues not converged
     ethr =  1.00E-05,  avg # of iterations = 18.8

     total cpu time spent up to now is       36.5 secs

     total energy              =     -85.64369303 Ry
     estimated scf accuracy    <       0.01516915 Ry

     iteration #  2     ecut=    50.00 Ry     beta= 0.40
     Davidson diagonalization with overlap

---- Real-time Memory Report at c_bands before calling an iterative solver
           489 MiB given to the printing process from OS
           182 MiB allocation reported by mallinfo(arena+hblkhd)
           790 MiB available memory on the node where the printing process lives
------------------
     ethr =  8.43E-05,  avg # of iterations =  1.1

     total cpu time spent up to now is       45.8 secs

     total energy              =     -85.64349621 Ry
     estimated scf accuracy    <       0.00445772 Ry

     iteration #  3     ecut=    50.00 Ry     beta= 0.40
     Davidson diagonalization with overlap

---- Real-time Memory Report at c_bands before calling an iterative solver
           492 MiB given to the printing process from OS
           184 MiB allocation reported by mallinfo(arena+hblkhd)
           795 MiB available memory on the node where the printing process lives
------------------
     ethr =  2.48E-05,  avg # of iterations =  1.1

     total cpu time spent up to now is       55.1 secs

     total energy              =     -85.64373882 Ry
     estimated scf accuracy    <       0.00018588 Ry

     iteration #  4     ecut=    50.00 Ry     beta= 0.40
     Davidson diagonalization with overlap

---- Real-time Memory Report at c_bands before calling an iterative solver
           493 MiB given to the printing process from OS
           186 MiB allocation reported by mallinfo(arena+hblkhd)
           790 MiB available memory on the node where the printing process lives
------------------
     ethr =  1.03E-06,  avg # of iterations =  5.4

     total cpu time spent up to now is       68.7 secs

     total energy              =     -85.64380263 Ry
     estimated scf accuracy    <       0.00000654 Ry

     iteration #  5     ecut=    50.00 Ry     beta= 0.40
     Davidson diagonalization with overlap

---- Real-time Memory Report at c_bands before calling an iterative solver
           496 MiB given to the printing process from OS
           188 MiB allocation reported by mallinfo(arena+hblkhd)
           796 MiB available memory on the node where the printing process lives
------------------
     ethr =  3.63E-08,  avg # of iterations =  4.0

     total cpu time spent up to now is       82.7 secs

     total energy              =     -85.64380636 Ry
     estimated scf accuracy    <       0.00000202 Ry

     iteration #  6     ecut=    50.00 Ry     beta= 0.40
     Davidson diagonalization with overlap

---- Real-time Memory Report at c_bands before calling an iterative solver
           497 MiB given to the printing process from OS
           190 MiB allocation reported by mallinfo(arena+hblkhd)
           789 MiB available memory on the node where the printing process lives
------------------
     ethr =  1.12E-08,  avg # of iterations =  2.1

     total cpu time spent up to now is       93.9 secs

     total energy              =     -85.64380663 Ry
     estimated scf accuracy    <       0.00000012 Ry

     iteration #  7     ecut=    50.00 Ry     beta= 0.40
     Davidson diagonalization with overlap

---- Real-time Memory Report at c_bands before calling an iterative solver
           500 MiB given to the printing process from OS
           192 MiB allocation reported by mallinfo(arena+hblkhd)
           796 MiB available memory on the node where the printing process lives
------------------
     ethr =  6.77E-10,  avg # of iterations =  2.7

     total cpu time spent up to now is      105.1 secs

     total energy              =     -85.64380666 Ry
     estimated scf accuracy    <       0.00000002 Ry

     iteration #  8     ecut=    50.00 Ry     beta= 0.40
     Davidson diagonalization with overlap

---- Real-time Memory Report at c_bands before calling an iterative solver
           501 MiB given to the printing process from OS
           194 MiB allocation reported by mallinfo(arena+hblkhd)
           790 MiB available memory on the node where the printing process lives
------------------
     ethr =  1.02E-10,  avg # of iterations =  3.1

     total cpu time spent up to now is      116.6 secs

     End of self-consistent calculation

          k = 0.0000 0.0000 0.0000 (  4081 PWs)   bands (ev):

    -7.6461  -7.6461  -4.3314  -4.3314  -4.3300  -4.3300   2.7858   2.7858
     2.9750   2.9750   3.4098   3.4098   4.3608   4.3608   4.4135   4.4135
     5.2691   5.2691   6.6625   6.6625   7.2764   7.2764   7.8453   7.8453
    10.9703  10.9716

     occupation numbers 
     1.0000   1.0000   1.0000   1.0000   1.0000   1.0000   1.0000   1.0000
     1.0000   1.0000   1.0000   1.0000   1.0000   1.0000   1.0000   1.0000
     1.0000   1.0000   0.0000   0.0000   0.0000   0.0000   0.0000   0.0000
     0.0000   0.0000

          k = 0.0000 0.0000 0.1243 (  4093 PWs)   bands (ev):

    -7.5464  -7.5452  -5.2672  -5.2643  -3.3634  -3.3621   2.5416   2.5472
     2.9640   3.1293   3.2230   3.6721   4.3153   4.4309   4.4983   4.5646
     5.1848   5.2931   6.5508   6.5708   7.0505   7.1392   7.5670   7.5813
    10.6331  10.6707

     occupation numbers 
     1.0000   1.0000   1.0000   1.0000   1.0000   1.0000   1.0000   1.0000
     1.0000   1.0000   1.0000   1.0000   1.0000   1.0000   1.0000   1.0000
     1.0000   1.0000   0.0000   0.0000   0.0000   0.0000   0.0000   0.0000
     0.0000   0.0000

          k = 0.0000 0.0000 0.2486 (  4112 PWs)   bands (ev):

    -7.2481  -7.2459  -6.0901  -6.0868  -2.5315  -2.5281   2.0456   2.0872
     3.1086   3.2141   3.2769   3.6953   4.4300   4.5881   4.5941   4.8479
     5.0300   5.2507   6.4393   6.4412   6.6963   6.8743   7.0291   7.1005
    10.1909  10.2096

     occupation numbers 
     1.0000   1.0000   1.0000   1.0000   1.0000   1.0000   1.0000   1.0000
     1.0000   1.0000   1.0000   1.0000   1.0000   1.0000   1.0000   1.0000
     1.0000   1.0000   0.0007   0.0006   0.0000   0.0000   0.0000   0.0000
     0.0000   0.0000

          k = 0.0000 0.0000-0.3728 (  4118 PWs)   bands (ev):

    -6.7582  -6.7582  -6.7553  -6.7553  -2.1660  -2.1660   1.8106   1.8106
     3.2063   3.2063   3.4980   3.4980   4.5690   4.5690   4.8205   4.8205
     5.1055   5.1055   6.4695   6.4695   6.5939   6.5939   6.8125   6.8125
    10.0091  10.0091

     occupation numbers 
     1.0000   1.0000   1.0000   1.0000   1.0000   1.0000   1.0000   1.0000
     1.0000   1.0000   1.0000   1.0000   1.0000   1.0000   1.0000   1.0000
     1.0000   1.0000   0.0002   0.0002   0.0000   0.0000   0.0000   0.0000
     0.0000   0.0000

          k = 0.0000 0.1924 0.0000 (  4113 PWs)   bands (ev):

    -7.4643  -7.4640  -4.3923  -4.3867  -4.2766  -4.2724   1.7703   1.8651
     2.3374   2.4850   2.8464   3.0789   4.5823   4.7517   4.9568   5.0486
     5.2294   5.3451   6.7662   6.8452   6.9968   7.0807   7.5917   7.6900
    10.4133  10.4527

     occupation numbers 
     1.0000   1.0000   1.0000   1.0000   1.0000   1.0000   1.0000   1.0000
     1.0000   1.0000   1.0000   1.0000   1.0000   1.0000   1.0000   1.0000
     1.0000   1.0000   0.0000   0.0000   0.0000   0.0000   0.0000   0.0000
     0.0000   0.0000

          k = 0.0000 0.1924 0.1243 (  4128 PWs)   bands (ev):

    -7.3659  -7.3645  -5.2052  -5.2020  -3.4588  -3.4562   1.8675   1.9442
     2.0246   2.1530   2.9446   3.1288   4.6877   4.8177   5.0019   5.1953
     5.3776   5.4736   6.6083   6.6332   6.8037   6.9415   7.4495   7.5116
    10.0146  10.0229

     occupation numbers 
     1.0000   1.0000   1.0000   1.0000   1.0000   1.0000   1.0000   1.0000
     1.0000   1.0000   1.0000   1.0000   1.0000   1.0000   1.0000   1.0000
     1.0000   1.0000   0.0000   0.0000   0.0000   0.0000   0.0000   0.0000
     0.0000   0.0000

          k = 0.0000 0.1924 0.2486 (  4129 PWs)   bands (ev):

    -7.0750  -7.0723  -5.9739  -5.9700  -2.7918  -2.7875   1.7065   1.7940
     2.2138   2.3792   3.0454   3.2253   4.4748   4.5540   4.6839   4.7971
     4.9643   5.0708   6.6761   6.7826   7.0199   7.1701   7.7152   7.7292
    10.0385  10.0652

     occupation numbers 
     1.0000   1.0000   1.0000   1.0000   1.0000   1.0000   1.0000   1.0000
     1.0000   1.0000   1.0000   1.0000   1.0000   1.0000   1.0000   1.0000
     1.0000   1.0000   0.0000   0.0000   0.0000   0.0000   0.0000   0.0000
     0.0000   0.0000

          k = 0.0000 0.1924-0.3728 (  4096 PWs)   bands (ev):

    -6.6229  -6.6212  -6.5843  -6.5829  -2.5464  -2.5456   1.6674   1.7446
     2.6731   2.9108   2.9943   3.1714   3.9348   4.1712   4.2831   4.4377
     4.6489   4.8459   6.8107   6.9474   7.4008   7.5285   7.9276   7.9356
    10.4458  10.4680

     occupation numbers 
     1.0000   1.0000   1.0000   1.0000   1.0000   1.0000   1.0000   1.0000
     1.0000   1.0000   1.0000   1.0000   1.0000   1.0000   1.0000   1.0000
     1.0000   1.0000   0.0000   0.0000   0.0000   0.0000   0.0000   0.0000
     0.0000   0.0000

          k = 0.0000 0.3849 0.0000 (  4084 PWs)   bands (ev):

    -6.9926  -6.9919  -4.6927  -4.6873  -4.1503  -4.1464   1.0499   1.1055
     1.6367   1.7939   2.3620   2.5726   3.5222   3.5963   4.8577   5.0057
     5.0902   5.2369   6.8719   6.9810   7.1160   7.1539   8.7904   8.8084
     9.3959   9.4249

     occupation numbers 
     1.0000   1.0000   1.0000   1.0000   1.0000   1.0000   1.0000   1.0000
     1.0000   1.0000   1.0000   1.0000   1.0000   1.0000   1.0000   1.0000
     1.0000   1.0000   0.0000   0.0000   0.0000   0.0000   0.0000   0.0000
     0.0000   0.0000

          k = 0.0000 0.3849 0.1243 (  4102 PWs)   bands (ev):

    -6.8966  -6.8941  -5.1708  -5.1665  -3.7121  -3.7059   0.9031   0.9307
     1.3824   1.4775   2.4833   2.6184   4.2465   4.4992   4.7312   5.0039
     5.0229   5.2084   6.8059   6.8753   7.3109   7.4072   7.8974   7.9253
     9.3303   9.3916

     occupation numbers 
     1.0000   1.0000   1.0000   1.0000   1.0000   1.0000   1.0000   1.0000
     1.0000   1.0000   1.0000   1.0000   1.0000   1.0000   1.0000   1.0000
     1.0000   1.0000   0.0000   0.0000   0.0000   0.0000   0.0000   0.0000
     0.0000   0.0000

          k = 0.0000 0.3849 0.2486 (  4106 PWs)   bands (ev):

    -6.6302  -6.6254  -5.7386  -5.7324  -3.4057  -3.3996   0.7406   0.7846
     1.6229   1.7378   2.6278   2.7421   3.9809   4.1400   4.3696   4.4665
     5.7656   5.8186   6.6555   6.7193   7.3207   7.4523   7.8335   8.1656
     9.8034   9.9425

     occupation numbers 
     1.0000   1.0000   1.0000   1.0000   1.0000   1.0000   1.0000   1.0000
     1.0000   1.0000   1.0000   1.0000   1.0000   1.0000   1.0000   1.0000
     0.9999   0.9994   0.0000   0.0000   0.0000   0.0000   0.0000   0.0000
     0.0000   0.0000

          k = 0.0000 0.3849-0.3728 (  4110 PWs)   bands (ev):

    -6.3181  -6.3162  -6.1320  -6.1299  -3.3733  -3.3718   0.8313   0.8728
     2.1384   2.2624   2.5181   2.6364   3.7284   3.7960   4.0107   4.0947
     4.9501   5.0526   7.2243   7.4197   7.8928   7.9964   8.3159   8.5264
    10.4592  10.6114

     occupation numbers 
     1.0000   1.0000   1.0000   1.0000   1.0000   1.0000   1.0000   1.0000
     1.0000   1.0000   1.0000   1.0000   1.0000   1.0000   1.0000   1.0000
     1.0000   1.0000   0.0000   0.0000   0.0000   0.0000   0.0000   0.0000
     0.0000   0.0000

          k = 0.0000-0.5773 0.0000 (  4098 PWs)   bands (ev):

    -6.6370  -6.6370  -5.0053  -5.0053  -4.0779  -4.0779   1.0210   1.0210
     1.5254   1.5254   2.3613   2.3613   2.5720   2.5720   4.8424   4.8424
     5.1277   5.1277   6.9240   6.9240   7.0477   7.0477   9.0175   9.0175
     9.7229   9.7229

     occupation numbers 
     1.0000   1.0000   1.0000   1.0000   1.0000   1.0000   1.0000   1.0000
     1.0000   1.0000   1.0000   1.0000   1.0000   1.0000   1.0000   1.0000
     1.0000   1.0000   0.0000   0.0000   0.0000   0.0000   0.0000   0.0000
     0.0000   0.0000

          k = 0.0000-0.5773 0.1243 (  4094 PWs)   bands (ev):

    -6.5635  -6.5598  -5.1655  -5.1613  -4.0269  -4.0190   0.9858   1.0249
     1.1880   1.2946   2.3137   2.4733   3.1853   3.3612   4.4759   4.6407
     4.7955   4.8763   6.9201   6.9573   7.5133   7.7261   9.1594   9.1799
     9.3643   9.4770

     occupation numbers 
     1.0000   1.0000   1.0000   1.0000   1.0000   1.0000   1.0000   1.0000
     1.0000   1.0000   1.0000   1.0000   1.0000   1.0000   1.0000   1.0000
     1.0000   1.0000   0.0000   0.0000   0.0000   0.0000   0.0000   0.0000
     0.0000   0.0000

          k = 0.0000-0.5773 0.2486 (  4086 PWs)   bands (ev):

    -6.3539  -6.3475  -5.5183  -5.5107  -3.9340  -3.9270   0.4719   0.5018
     1.6393   1.7468   2.4267   2.5421   3.6282   3.9032   4.0941   4.2792
     4.7468   4.9455   7.2697   7.3481   7.8598   7.9411   8.2810   8.6108
    10.0830  10.3005

     occupation numbers 
     1.0000   1.0000   1.0000   1.0000   1.0000   1.0000   1.0000   1.0000
     1.0000   1.0000   1.0000   1.0000   1.0000   1.0000   1.0000   1.0000
     1.0000   1.0000   0.0000   0.0000   0.0000   0.0000   0.0000   0.0000
     0.0000   0.0000

          k = 0.0000-0.5773-0.3728 (  4104 PWs)   bands (ev):

    -6.1411  -6.1411  -5.7861  -5.7861  -3.8886  -3.8886   0.2877   0.2877
     2.1764   2.1764   2.3090   2.3090   3.5910   3.5910   3.9430   3.9430
     5.7727   5.7727   6.7209   6.7209   7.7949   7.7949   8.6730   8.6730
    10.5513  10.5514

     occupation numbers 
     1.0000   1.0000   1.0000   1.0000   1.0000   1.0000   1.0000   1.0000
     1.0000   1.0000   1.0000   1.0000   1.0000   1.0000   1.0000   1.0000
     0.9999   0.9999   0.0000   0.0000   0.0000   0.0000   0.0000   0.0000
     0.0000   0.0000

          k = 0.1667 0.0962 0.0000 (  4113 PWs)   bands (ev):

    -7.4643  -7.4640  -4.3923  -4.3866  -4.2766  -4.2725   1.7703   1.8652
     2.3374   2.4850   2.8463   3.0788   4.5823   4.7517   4.9568   5.0486
     5.2294   5.3452   6.7661   6.8452   6.9968   7.0807   7.5917   7.6900
    10.4133  10.4527

     occupation numbers 
     1.0000   1.0000   1.0000   1.0000   1.0000   1.0000   1.0000   1.0000
     1.0000   1.0000   1.0000   1.0000   1.0000   1.0000   1.0000   1.0000
     1.0000   1.0000   0.0000   0.0000   0.0000   0.0000   0.0000   0.0000
     0.0000   0.0000

          k = 0.1667 0.0962 0.1243 (  4128 PWs)   bands (ev):

    -7.3686  -7.3672  -5.1774  -5.1743  -3.5158  -3.5131   1.8279   1.9134
     2.5672   2.7643   2.8403   3.2023   4.2804   4.3296   4.4227   4.5992
     4.8534   5.0410   7.0070   7.0991   7.4235   7.5471   7.8359   7.9289
    10.7120  10.7516

     occupation numbers 
     1.0000   1.0000   1.0000   1.0000   1.0000   1.0000   1.0000   1.0000
     1.0000   1.0000   1.0000   1.0000   1.0000   1.0000   1.0000   1.0000
     1.0000   1.0000   0.0000   0.0000   0.0000   0.0000   0.0000   0.0000
     0.0000   0.0000

          k = 0.1667 0.0962 0.2486 (  4128 PWs)   bands (ev):

    -7.0809  -7.0783  -5.9565  -5.9527  -2.8426  -2.8383   1.8275   1.8945
     2.6912   2.8522   3.1034   3.3492   3.7543   3.9770   4.2010   4.2874
     4.6700   4.8240   7.0365   7.0768   7.6919   7.7894   7.8507   7.9207
    10.6480  10.6682

     occupation numbers 
     1.0000   1.0000   1.0000   1.0000   1.0000   1.0000   1.0000   1.0000
     1.0000   1.0000   1.0000   1.0000   1.0000   1.0000   1.0000   1.0000
     1.0000   1.0000   0.0000   0.0000   0.0000   0.0000   0.0000   0.0000
     0.0000   0.0000

          k = 0.1667 0.0962-0.3728 (  4092 PWs)   bands (ev):

    -6.6229  -6.6212  -6.5843  -6.5829  -2.5464  -2.5456   1.6674   1.7446
     2.6731   2.9108   2.9942   3.1713   3.9348   4.1712   4.2831   4.4377
     4.6489   4.8459   6.8107   6.9474   7.4008   7.5285   7.9277   7.9357
    10.4461  10.4680

     occupation numbers 
     1.0000   1.0000   1.0000   1.0000   1.0000   1.0000   1.0000   1.0000
     1.0000   1.0000   1.0000   1.0000   1.0000   1.0000   1.0000   1.0000
     1.0000   1.0000   0.0000   0.0000   0.0000   0.0000   0.0000   0.0000
     0.0000   0.0000

          k = 0.1667 0.2887 0.0000 (  4105 PWs)   bands (ev):

    -7.1331  -7.1325  -4.5190  -4.5088  -4.2587  -4.2502   1.2474   1.3606
     1.5189   1.6269   2.8946   3.0565   4.0557   4.2106   4.3334   4.4040
     4.8029   4.8515   7.5199   7.5566   7.6107   7.6437   7.9820   8.0010
    10.2958  10.3023

     occupation numbers 
     1.0000   1.0000   1.0000   1.0000   1.0000   1.0000   1.0000   1.0000
     1.0000   1.0000   1.0000   1.0000   1.0000   1.0000   1.0000   1.0000
     1.0000   1.0000   0.0000   0.0000   0.0000   0.0000   0.0000   0.0000
     0.0000   0.0000

          k = 0.1667 0.2887 0.1243 (  4105 PWs)   bands (ev):

    -7.0424  -7.0403  -5.0950  -5.0911  -3.7455  -3.7403   1.2617   1.3271
     1.6756   1.7313   2.8019   2.9359   3.6139   3.7092   4.3951   4.5124
     5.4293   5.4960   6.8660   6.9373   7.6732   7.7131   8.2877   8.3188
    10.2696  10.3001

     occupation numbers 
     1.0000   1.0000   1.0000   1.0000   1.0000   1.0000   1.0000   1.0000
     1.0000   1.0000   1.0000   1.0000   1.0000   1.0000   1.0000   1.0000
     1.0000   1.0000   0.0000   0.0000   0.0000   0.0000   0.0000   0.0000
     0.0000   0.0000

          k = 0.1667 0.2887 0.2486 (  4106 PWs)   bands (ev):

    -6.7735  -6.7698  -5.7593  -5.7543  -3.3002  -3.2945   1.2724   1.3658
     1.7739   1.9083   2.6354   2.7518   3.3012   3.4824   4.8545   4.9841
     5.1718   5.2953   6.8124   6.8675   7.6627   7.6727   8.4711   8.5244
    10.4478  10.4684

     occupation numbers 
     1.0000   1.0000   1.0000   1.0000   1.0000   1.0000   1.0000   1.0000
     1.0000   1.0000   1.0000   1.0000   1.0000   1.0000   1.0000   1.0000
     1.0000   1.0000   0.0000   0.0000   0.0000   0.0000   0.0000   0.0000
     0.0000   0.0000

          k = 0.1667 0.2887-0.3728 (  4116 PWs)   bands (ev):

    -6.3834  -6.3804  -6.2863  -6.2833  -3.1320  -3.1304   1.2471   1.3435
     2.0777   2.0928   2.2049   2.3052   3.8686   4.0291   4.4319   4.4648
     5.1728   5.2574   6.7423   6.8214   8.1207   8.1364   8.3230   8.3437
    10.6391  10.6785

     occupation numbers 
     1.0000   1.0000   1.0000   1.0000   1.0000   1.0000   1.0000   1.0000
     1.0000   1.0000   1.0000   1.0000   1.0000   1.0000   1.0000   1.0000
     1.0000   1.0000   0.0000   0.0000   0.0000   0.0000   0.0000   0.0000
     0.0000   0.0000

          k = 0.1667 0.4811 0.0000 (  4107 PWs)   bands (ev):

    -6.6640  -6.6632  -4.8218  -4.8157  -4.2694  -4.2639   1.0955   1.1670
     1.3735   1.4810   2.4524   2.6513   2.9394   3.0627   3.9801   4.0676
     4.2191   4.2593   7.7619   7.7979   8.1222   8.1356   9.2354   9.2452
     9.8892   9.9054

     occupation numbers 
     1.0000   1.0000   1.0000   1.0000   1.0000   1.0000   1.0000   1.0000
     1.0000   1.0000   1.0000   1.0000   1.0000   1.0000   1.0000   1.0000
     1.0000   1.0000   0.0000   0.0000   0.0000   0.0000   0.0000   0.0000
     0.0000   0.0000

          k = 0.1667 0.4811 0.1243 (  4096 PWs)   bands (ev):

    -6.5809  -6.5772  -5.1227  -5.1175  -4.0404  -4.0318   0.8350   0.8679
     1.3294   1.4286   2.3831   2.5136   3.1730   3.3403   4.0366   4.1665
     4.8757   4.9936   7.3071   7.3730   8.3391   8.3730   8.4876   8.5599
    10.0299  10.0843

     occupation numbers 
     1.0000   1.0000   1.0000   1.0000   1.0000   1.0000   1.0000   1.0000
     1.0000   1.0000   1.0000   1.0000   1.0000   1.0000   1.0000   1.0000
     1.0000   1.0000   0.0000   0.0000   0.0000   0.0000   0.0000   0.0000
     0.0000   0.0000

          k = 0.1667 0.4811 0.2486 (  4094 PWs)   bands (ev):

    -6.3493  -6.3425  -5.5615  -5.5534  -3.8426  -3.8350   0.5714   0.6137
     1.3170   1.3926   2.1175   2.1915   3.4149   3.5425   4.9822   5.1895
     5.5415   5.7989   6.6582   6.7238   7.4299   7.5005   8.5239   8.6314
    10.3433  10.4201

     occupation numbers 
     1.0000   1.0000   1.0000   1.0000   1.0000   1.0000   1.0000   1.0000
     1.0000   1.0000   1.0000   1.0000   1.0000   1.0000   1.0000   1.0000
     1.0000   0.9997   0.0000   0.0000   0.0000   0.0000   0.0000   0.0000
     0.0000   0.0000

          k = 0.1667 0.4811-0.3728 (  4090 PWs)   bands (ev):

    -6.0924  -6.0901  -5.8760  -5.8730  -3.7989  -3.7972   0.5585   0.5860
     1.5033   1.5339   1.6467   1.7301   4.2557   4.3589   4.7573   4.7988
     5.5576   5.6351   6.8580   6.9593   7.5450   7.6080   8.1939   8.2406
    10.8160  10.8505

     occupation numbers 
     1.0000   1.0000   1.0000   1.0000   1.0000   1.0000   1.0000   1.0000
     1.0000   1.0000   1.0000   1.0000   1.0000   1.0000   1.0000   1.0000
     1.0000   1.0000   0.0000   0.0000   0.0000   0.0000   0.0000   0.0000
     0.0000   0.0000

          k = 0.3333 0.1924 0.0000 (  4084 PWs)   bands (ev):

    -6.9926  -6.9919  -4.6927  -4.6873  -4.1503  -4.1464   1.0499   1.1055
     1.6367   1.7939   2.3620   2.5726   3.5222   3.5963   4.8577   5.0057
     5.0902   5.2369   6.8718   6.9810   7.1159   7.1539   8.7905   8.8084
     9.3959   9.4249

     occupation numbers 
     1.0000   1.0000   1.0000   1.0000   1.0000   1.0000   1.0000   1.0000
     1.0000   1.0000   1.0000   1.0000   1.0000   1.0000   1.0000   1.0000
     1.0000   1.0000   0.0000   0.0000   0.0000   0.0000   0.0000   0.0000
     0.0000   0.0000

          k = 0.3333 0.1924 0.1243 (  4102 PWs)   bands (ev):

    -6.9145  -6.9122  -5.0079  -5.0041  -3.9684  -3.9623   1.3262   1.4377
     1.8348   1.9523   2.5630   2.7935   2.8208   3.0395   4.3797   4.6287
     4.8245   4.9844   6.9971   7.0874   7.7092   7.9337   9.1976   9.2109
     9.9747  10.0872

     occupation numbers 
     1.0000   1.0000   1.0000   1.0000   1.0000   1.0000   1.0000   1.0000
     1.0000   1.0000   1.0000   1.0000   1.0000   1.0000   1.0000   1.0000
     1.0000   1.0000   0.0000   0.0000   0.0000   0.0000   0.0000   0.0000
     0.0000   0.0000

          k = 0.3333 0.1924 0.2486 (  4106 PWs)   bands (ev):

    -6.6689  -6.6649  -5.6254  -5.6202  -3.5950  -3.5889   1.2082   1.2818
     1.9756   2.1367   2.5814   2.7289   3.3014   3.6635   3.9206   4.0941
     4.4233   4.6473   7.4042   7.4506   8.2617   8.4119   8.8721   8.8875
    10.5990  10.7111

     occupation numbers 
     1.0000   1.0000   1.0000   1.0000   1.0000   1.0000   1.0000   1.0000
     1.0000   1.0000   1.0000   1.0000   1.0000   1.0000   1.0000   1.0000
     1.0000   1.0000   0.0000   0.0000   0.0000   0.0000   0.0000   0.0000
     0.0000   0.0000

          k = 0.3333 0.1924-0.3728 (  4110 PWs)   bands (ev):

    -6.3181  -6.3162  -6.1319  -6.1299  -3.3733  -3.3718   0.8313   0.8728
     2.1384   2.2624   2.5180   2.6364   3.7284   3.7960   4.0106   4.0946
     4.9500   5.0526   7.2243   7.4197   7.8928   7.9965   8.3159   8.5263
    10.4592  10.6114

     occupation numbers 
     1.0000   1.0000   1.0000   1.0000   1.0000   1.0000   1.0000   1.0000
     1.0000   1.0000   1.0000   1.0000   1.0000   1.0000   1.0000   1.0000
     1.0000   1.0000   0.0000   0.0000   0.0000   0.0000   0.0000   0.0000
     0.0000   0.0000

          k = 0.3333 0.3849 0.0000 (  4107 PWs)   bands (ev):

    -6.6640  -6.6632  -4.8218  -4.8156  -4.2694  -4.2640   1.0955   1.1670
     1.3735   1.4810   2.4523   2.6513   2.9394   3.0627   3.9800   4.0676
     4.2191   4.2593   7.7619   7.7979   8.1221   8.1355   9.2354   9.2453
     9.8892   9.9054

     occupation numbers 
     1.0000   1.0000   1.0000   1.0000   1.0000   1.0000   1.0000   1.0000
     1.0000   1.0000   1.0000   1.0000   1.0000   1.0000   1.0000   1.0000
     1.0000   1.0000   0.0000   0.0000   0.0000   0.0000   0.0000   0.0000
     0.0000   0.0000

          k = 0.3333 0.3849 0.1243 (  4096 PWs)   bands (ev):

    -6.5922  -6.5887  -5.0350  -5.0302  -4.1555  -4.1466   1.0294   1.0821
     1.4241   1.4954   2.4015   2.5614   2.8235   3.1897   3.6477   3.8390
     5.0992   5.1622   7.1515   7.2127   8.2453   8.2938   9.2848   9.3094
    10.1406  10.1956

     occupation numbers 
     1.0000   1.0000   1.0000   1.0000   1.0000   1.0000   1.0000   1.0000
     1.0000   1.0000   1.0000   1.0000   1.0000   1.0000   1.0000   1.0000
     1.0000   1.0000   0.0000   0.0000   0.0000   0.0000   0.0000   0.0000
     0.0000   0.0000

          k = 0.3333 0.3849 0.2486 (  4094 PWs)   bands (ev):

    -6.3735  -6.3674  -5.4931  -5.4859  -3.9260  -3.9184   0.8223   0.8950
     1.2202   1.2874   2.0694   2.1446   3.5208   3.7307   4.4468   4.5859
     5.3507   5.4808   6.9170   6.9524   8.1008   8.1625   8.5715   8.6158
    10.6032  10.6475

     occupation numbers 
     1.0000   1.0000   1.0000   1.0000   1.0000   1.0000   1.0000   1.0000
     1.0000   1.0000   1.0000   1.0000   1.0000   1.0000   1.0000   1.0000
     1.0000   1.0000   0.0000   0.0000   0.0000   0.0000   0.0000   0.0000
     0.0000   0.0000

          k = 0.3333 0.3849-0.3728 (  4090 PWs)   bands (ev):

    -6.0924  -6.0901  -5.8760  -5.8730  -3.7989  -3.7972   0.5585   0.5860
     1.5033   1.5339   1.6466   1.7301   4.2557   4.3590   4.7572   4.7987
     5.5575   5.6351   6.8580   6.9593   7.5450   7.6080   8.1939   8.2406
    10.8162  10.8500

     occupation numbers 
     1.0000   1.0000   1.0000   1.0000   1.0000   1.0000   1.0000   1.0000
     1.0000   1.0000   1.0000   1.0000   1.0000   1.0000   1.0000   1.0000
     1.0000   1.0000   0.0000   0.0000   0.0000   0.0000   0.0000   0.0000
     0.0000   0.0000

          k = 0.3333 0.5773 0.0000 (  4104 PWs)   bands (ev):

    -6.4663  -6.4663  -4.6445  -4.6414  -4.6414  -4.6299   1.2431   1.4287
     1.4287   1.4444   2.7642   2.7643   2.8614   3.0667   3.0667   3.0903
     3.4440   3.4440   8.7524   8.7926   8.9588   8.9588   9.2095   9.2095
    10.9193  10.9193

     occupation numbers 
     1.0000   1.0000   1.0000   1.0000   1.0000   1.0000   1.0000   1.0000
     1.0000   1.0000   1.0000   1.0000   1.0000   1.0000   1.0000   1.0000
     1.0000   1.0000   0.0000   0.0000   0.0000   0.0000   0.0000   0.0000
     0.0000   0.0000

          k = 0.3333 0.5773 0.1243 (  4119 PWs)   bands (ev):

    -6.3947  -6.3901  -5.0332  -5.0295  -4.3130  -4.3030   0.9502   0.9651
     1.3263   1.4914   2.1369   2.2446   2.8494   3.0335   3.8575   3.8980
     4.2393   4.4320   8.2023   8.3569   8.6879   8.8083   8.8151   8.8482
    11.1090  11.1580

     occupation numbers 
     1.0000   1.0000   1.0000   1.0000   1.0000   1.0000   1.0000   1.0000
     1.0000   1.0000   1.0000   1.0000   1.0000   1.0000   1.0000   1.0000
     1.0000   1.0000   0.0000   0.0000   0.0000   0.0000   0.0000   0.0000
     0.0000   0.0000

          k = 0.3333 0.5773 0.2486 (  4113 PWs)   bands (ev):

    -6.1832  -6.1748  -5.4556  -5.4465  -4.0770  -4.0683   0.7665   0.8203
     0.9297   0.9882   1.4085   1.5201   3.8848   4.0187   4.9465   5.0975
     5.2941   5.5832   7.0651   7.1793   7.9076   7.9953   8.1125   8.1468
    11.7442  11.7569

     occupation numbers 
     1.0000   1.0000   1.0000   1.0000   1.0000   1.0000   1.0000   1.0000
     1.0000   1.0000   1.0000   1.0000   1.0000   1.0000   1.0000   1.0000
     1.0000   1.0000   0.0000   0.0000   0.0000   0.0000   0.0000   0.0000
     0.0000   0.0000

          k = 0.3333 0.5773-0.3728 (  4110 PWs)   bands (ev):

    -5.8563  -5.8563  -5.8496  -5.8424  -3.9842  -3.9842   0.7532   0.7532
     0.9050   0.9584   1.0317   1.0317   4.8190   4.8190   5.8038   5.8038
     6.0531   6.1364   6.1364   6.1969   7.3122   7.3835   7.5385   7.5385
    11.9348  11.9349

     occupation numbers 
     1.0000   1.0000   1.0000   1.0000   1.0000   1.0000   1.0000   1.0000
     1.0000   1.0000   1.0000   1.0000   1.0000   1.0000   0.9997   0.9997
     0.7931   0.4805   0.4805   0.2489   0.0000   0.0000   0.0000   0.0000
     0.0000   0.0000

          k = 0.3333 0.0000 0.0000 (  4105 PWs)   bands (ev):

    -7.1331  -7.1325  -4.5189  -4.5087  -4.2587  -4.2502   1.2474   1.3606
     1.5189   1.6268   2.8946   3.0565   4.0557   4.2106   4.3334   4.4040
     4.8028   4.8514   7.5199   7.5566   7.6106   7.6437   7.9819   8.0009
    10.2957  10.3023

     occupation numbers 
     1.0000   1.0000   1.0000   1.0000   1.0000   1.0000   1.0000   1.0000
     1.0000   1.0000   1.0000   1.0000   1.0000   1.0000   1.0000   1.0000
     1.0000   1.0000   0.0000   0.0000   0.0000   0.0000   0.0000   0.0000
     0.0000   0.0000

          k = 0.3333 0.0000 0.1243 (  4105 PWs)   bands (ev):

    -7.0424  -7.0403  -5.0950  -5.0910  -3.7455  -3.7403   1.2617   1.3271
     1.6756   1.7313   2.8018   2.9359   3.6138   3.7091   4.3952   4.5124
     5.4293   5.4960   6.8660   6.9373   7.6732   7.7131   8.2876   8.3188
    10.2691  10.2997

     occupation numbers 
     1.0000   1.0000   1.0000   1.0000   1.0000   1.0000   1.0000   1.0000
     1.0000   1.0000   1.0000   1.0000   1.0000   1.0000   1.0000   1.0000
     1.0000   1.0000   0.0000   0.0000   0.0000   0.0000   0.0000   0.0000
     0.0000   0.0000

          k = 0.3333 0.0000 0.2486 (  4106 PWs)   bands (ev):

    -6.7735  -6.7698  -5.7593  -5.7543  -3.3003  -3.2945   1.2724   1.3658
     1.7739   1.9083   2.6353   2.7518   3.3012   3.4824   4.8545   4.9841
     5.1718   5.2953   6.8124   6.8674   7.6627   7.6727   8.4711   8.5244
    10.4477  10.4684

     occupation numbers 
     1.0000   1.0000   1.0000   1.0000   1.0000   1.0000   1.0000   1.0000
     1.0000   1.0000   1.0000   1.0000   1.0000   1.0000   1.0000   1.0000
     1.0000   1.0000   0.0000   0.0000   0.0000   0.0000   0.0000   0.0000
     0.0000   0.0000

          k = 0.3333 0.0000-0.3728 (  4116 PWs)   bands (ev):

    -6.3834  -6.3804  -6.2863  -6.2832  -3.1320  -3.1304   1.2471   1.3435
     2.0777   2.0928   2.2049   2.3052   3.8685   4.0291   4.4319   4.4648
     5.1728   5.2574   6.7422   6.8213   8.1207   8.1364   8.3230   8.3437
    10.6389  10.6786

     occupation numbers 
     1.0000   1.0000   1.0000   1.0000   1.0000   1.0000   1.0000   1.0000
     1.0000   1.0000   1.0000   1.0000   1.0000   1.0000   1.0000   1.0000
     1.0000   1.0000   0.0000   0.0000   0.0000   0.0000   0.0000   0.0000
     0.0000   0.0000

          k =-0.5000-0.2887 0.0000 (  4098 PWs)   bands (ev):

    -6.6370  -6.6370  -5.0052  -5.0052  -4.0780  -4.0780   1.0210   1.0210
     1.5254   1.5254   2.3613   2.3613   2.5720   2.5720   4.8424   4.8424
     5.1277   5.1277   6.9240   6.9240   7.0476   7.0476   9.0175   9.0175
     9.7229   9.7229

     occupation numbers 
     1.0000   1.0000   1.0000   1.0000   1.0000   1.0000   1.0000   1.0000
     1.0000   1.0000   1.0000   1.0000   1.0000   1.0000   1.0000   1.0000
     1.0000   1.0000   0.0000   0.0000   0.0000   0.0000   0.0000   0.0000
     0.0000   0.0000

          k =-0.5000-0.2887 0.1243 (  4094 PWs)   bands (ev):

    -6.5635  -6.5597  -5.1655  -5.1612  -4.0269  -4.0190   0.9857   1.0249
     1.1880   1.2946   2.3137   2.4732   3.1853   3.3611   4.4758   4.6406
     4.7955   4.8763   6.9201   6.9573   7.5132   7.7261   9.1595   9.1800
     9.3643   9.4770

     occupation numbers 
     1.0000   1.0000   1.0000   1.0000   1.0000   1.0000   1.0000   1.0000
     1.0000   1.0000   1.0000   1.0000   1.0000   1.0000   1.0000   1.0000
     1.0000   1.0000   0.0000   0.0000   0.0000   0.0000   0.0000   0.0000
     0.0000   0.0000

          k =-0.5000-0.2887 0.2486 (  4086 PWs)   bands (ev):

    -6.3539  -6.3475  -5.5183  -5.5107  -3.9340  -3.9270   0.4719   0.5018
     1.6393   1.7467   2.4266   2.5420   3.6281   3.9032   4.0941   4.2792
     4.7468   4.9455   7.2697   7.3481   7.8598   7.9411   8.2810   8.6108
    10.0830  10.3005

     occupation numbers 
     1.0000   1.0000   1.0000   1.0000   1.0000   1.0000   1.0000   1.0000
     1.0000   1.0000   1.0000   1.0000   1.0000   1.0000   1.0000   1.0000
     1.0000   1.0000   0.0000   0.0000   0.0000   0.0000   0.0000   0.0000
     0.0000   0.0000

          k =-0.5000-0.2887-0.3728 (  4104 PWs)   bands (ev):

    -6.1411  -6.1411  -5.7861  -5.7861  -3.8886  -3.8886   0.2877   0.2877
     2.1764   2.1764   2.3089   2.3089   3.5909   3.5909   3.9430   3.9430
     5.7727   5.7727   6.7209   6.7209   7.7949   7.7949   8.6729   8.6729
    10.5513  10.5514

     occupation numbers 
     1.0000   1.0000   1.0000   1.0000   1.0000   1.0000   1.0000   1.0000
     1.0000   1.0000   1.0000   1.0000   1.0000   1.0000   1.0000   1.0000
     0.9999   0.9999   0.0000   0.0000   0.0000   0.0000   0.0000   0.0000
     0.0000   0.0000

          k =-0.5000-0.0962 0.0000 (  4107 PWs)   bands (ev):

    -6.6640  -6.6632  -4.8218  -4.8156  -4.2694  -4.2640   1.0955   1.1670
     1.3735   1.4810   2.4523   2.6513   2.9394   3.0627   3.9801   4.0676
     4.2191   4.2593   7.7618   7.7979   8.1221   8.1355   9.2354   9.2452
     9.8892   9.9054

     occupation numbers 
     1.0000   1.0000   1.0000   1.0000   1.0000   1.0000   1.0000   1.0000
     1.0000   1.0000   1.0000   1.0000   1.0000   1.0000   1.0000   1.0000
     1.0000   1.0000   0.0000   0.0000   0.0000   0.0000   0.0000   0.0000
     0.0000   0.0000

          k =-0.5000-0.0962 0.1243 (  4096 PWs)   bands (ev):

    -6.5809  -6.5772  -5.1227  -5.1175  -4.0404  -4.0318   0.8349   0.8679
     1.3294   1.4287   2.3830   2.5135   3.1729   3.3402   4.0366   4.1665
     4.8757   4.9936   7.3070   7.3730   8.3391   8.3730   8.4876   8.5599
    10.0299  10.0843

     occupation numbers 
     1.0000   1.0000   1.0000   1.0000   1.0000   1.0000   1.0000   1.0000
     1.0000   1.0000   1.0000   1.0000   1.0000   1.0000   1.0000   1.0000
     1.0000   1.0000   0.0000   0.0000   0.0000   0.0000   0.0000   0.0000
     0.0000   0.0000

          k =-0.5000-0.0962 0.2486 (  4094 PWs)   bands (ev):

    -6.3493  -6.3425  -5.5614  -5.5533  -3.8426  -3.8350   0.5714   0.6136
     1.3170   1.3926   2.1175   2.1915   3.4149   3.5425   4.9822   5.1895
     5.5415   5.7989   6.6581   6.7238   7.4299   7.5005   8.5238   8.6314
    10.3433  10.4200

     occupation numbers 
     1.0000   1.0000   1.0000   1.0000   1.0000   1.0000   1.0000   1.0000
     1.0000   1.0000   1.0000   1.0000   1.0000   1.0000   1.0000   1.0000
     1.0000   0.9997   0.0000   0.0000   0.0000   0.0000   0.0000   0.0000
     0.0000   0.0000

          k =-0.5000-0.0962-0.3728 (  4092 PWs)   bands (ev):

    -6.0924  -6.0901  -5.8760  -5.8730  -3.7989  -3.7972   0.5585   0.5860
     1.5033   1.5339   1.6467   1.7301   4.2556   4.3589   4.7572   4.7987
     5.5575   5.6351   6.8580   6.9593   7.5450   7.6080   8.1939   8.2406
    10.8160  10.8500

     occupation numbers 
     1.0000   1.0000   1.0000   1.0000   1.0000   1.0000   1.0000   1.0000
     1.0000   1.0000   1.0000   1.0000   1.0000   1.0000   1.0000   1.0000
     1.0000   1.0000   0.0000   0.0000   0.0000   0.0000   0.0000   0.0000
     0.0000   0.0000

          k = 0.0000 0.1924-0.1243 (  4128 PWs)   bands (ev):

    -7.3686  -7.3672  -5.1774  -5.1743  -3.5158  -3.5131   1.8279   1.9134
     2.5673   2.7643   2.8403   3.2023   4.2804   4.3295   4.4227   4.5991
     4.8534   5.0409   7.0070   7.0992   7.4235   7.5470   7.8359   7.9289
    10.7116  10.7516

     occupation numbers 
     1.0000   1.0000   1.0000   1.0000   1.0000   1.0000   1.0000   1.0000
     1.0000   1.0000   1.0000   1.0000   1.0000   1.0000   1.0000   1.0000
     1.0000   1.0000   0.0000   0.0000   0.0000   0.0000   0.0000   0.0000
     0.0000   0.0000

          k = 0.0000 0.1924-0.2486 (  4129 PWs)   bands (ev):

    -7.0809  -7.0783  -5.9565  -5.9527  -2.8426  -2.8383   1.8276   1.8945
     2.6913   2.8522   3.1034   3.3491   3.7543   3.9770   4.2010   4.2874
     4.6700   4.8240   7.0365   7.0768   7.6919   7.7894   7.8507   7.9207
    10.6482  10.6682

     occupation numbers 
     1.0000   1.0000   1.0000   1.0000   1.0000   1.0000   1.0000   1.0000
     1.0000   1.0000   1.0000   1.0000   1.0000   1.0000   1.0000   1.0000
     1.0000   1.0000   0.0000   0.0000   0.0000   0.0000   0.0000   0.0000
     0.0000   0.0000

          k = 0.0000 0.3849-0.1243 (  4102 PWs)   bands (ev):

    -6.9145  -6.9122  -5.0079  -5.0041  -3.9684  -3.9623   1.3262   1.4376
     1.8349   1.9523   2.5630   2.7936   2.8208   3.0396   4.3797   4.6287
     4.8245   4.9844   6.9971   7.0874   7.7093   7.9338   9.1976   9.2109
     9.9747  10.0872

     occupation numbers 
     1.0000   1.0000   1.0000   1.0000   1.0000   1.0000   1.0000   1.0000
     1.0000   1.0000   1.0000   1.0000   1.0000   1.0000   1.0000   1.0000
     1.0000   1.0000   0.0000   0.0000   0.0000   0.0000   0.0000   0.0000
     0.0000   0.0000

          k = 0.0000 0.3849-0.2486 (  4106 PWs)   bands (ev):

    -6.6690  -6.6649  -5.6254  -5.6202  -3.5950  -3.5890   1.2082   1.2818
     1.9757   2.1367   2.5815   2.7289   3.3014   3.6636   3.9206   4.0941
     4.4233   4.6473   7.4042   7.4506   8.2617   8.4119   8.8720   8.8875
    10.5992  10.7111

     occupation numbers 
     1.0000   1.0000   1.0000   1.0000   1.0000   1.0000   1.0000   1.0000
     1.0000   1.0000   1.0000   1.0000   1.0000   1.0000   1.0000   1.0000
     1.0000   1.0000   0.0000   0.0000   0.0000   0.0000   0.0000   0.0000
     0.0000   0.0000

          k =-0.1667 0.0962-0.1243 (  4128 PWs)   bands (ev):

    -7.3659  -7.3645  -5.2051  -5.2020  -3.4589  -3.4562   1.8676   1.9442
     2.0246   2.1530   2.9445   3.1287   4.6876   4.8177   5.0018   5.1953
     5.3776   5.4736   6.6083   6.6332   6.8037   6.9414   7.4495   7.5117
    10.0146  10.0229

     occupation numbers 
     1.0000   1.0000   1.0000   1.0000   1.0000   1.0000   1.0000   1.0000
     1.0000   1.0000   1.0000   1.0000   1.0000   1.0000   1.0000   1.0000
     1.0000   1.0000   0.0000   0.0000   0.0000   0.0000   0.0000   0.0000
     0.0000   0.0000

          k =-0.1667 0.0962-0.2486 (  4128 PWs)   bands (ev):

    -7.0750  -7.0723  -5.9739  -5.9700  -2.7918  -2.7875   1.7065   1.7940
     2.2138   2.3792   3.0453   3.2253   4.4748   4.5540   4.6839   4.7970
     4.9642   5.0708   6.6761   6.7826   7.0199   7.1701   7.7152   7.7293
    10.0385  10.0652

     occupation numbers 
     1.0000   1.0000   1.0000   1.0000   1.0000   1.0000   1.0000   1.0000
     1.0000   1.0000   1.0000   1.0000   1.0000   1.0000   1.0000   1.0000
     1.0000   1.0000   0.0000   0.0000   0.0000   0.0000   0.0000   0.0000
     0.0000   0.0000

          k =-0.1667 0.2887-0.1243 (  4105 PWs)   bands (ev):

    -7.0424  -7.0403  -5.0950  -5.0910  -3.7455  -3.7403   1.2617   1.3271
     1.6757   1.7313   2.8019   2.9359   3.6138   3.7091   4.3951   4.5124
     5.4293   5.4960   6.8660   6.9373   7.6732   7.7131   8.2876   8.3188
    10.2692  10.2995

     occupation numbers 
     1.0000   1.0000   1.0000   1.0000   1.0000   1.0000   1.0000   1.0000
     1.0000   1.0000   1.0000   1.0000   1.0000   1.0000   1.0000   1.0000
     1.0000   1.0000   0.0000   0.0000   0.0000   0.0000   0.0000   0.0000
     0.0000   0.0000

          k =-0.1667 0.2887-0.2486 (  4106 PWs)   bands (ev):

    -6.7735  -6.7698  -5.7593  -5.7543  -3.3003  -3.2945   1.2724   1.3658
     1.7739   1.9083   2.6353   2.7518   3.3013   3.4824   4.8546   4.9841
     5.1718   5.2953   6.8124   6.8675   7.6628   7.6727   8.4710   8.5244
    10.4478  10.4684

     occupation numbers 
     1.0000   1.0000   1.0000   1.0000   1.0000   1.0000   1.0000   1.0000
     1.0000   1.0000   1.0000   1.0000   1.0000   1.0000   1.0000   1.0000
     1.0000   1.0000   0.0000   0.0000   0.0000   0.0000   0.0000   0.0000
     0.0000   0.0000

          k =-0.1667 0.4811-0.1243 (  4096 PWs)   bands (ev):

    -6.5923  -6.5887  -5.0350  -5.0302  -4.1555  -4.1466   1.0294   1.0821
     1.4241   1.4954   2.4015   2.5614   2.8235   3.1897   3.6477   3.8390
     5.0992   5.1622   7.1515   7.2128   8.2453   8.2939   9.2847   9.3093
    10.1406  10.1956

     occupation numbers 
     1.0000   1.0000   1.0000   1.0000   1.0000   1.0000   1.0000   1.0000
     1.0000   1.0000   1.0000   1.0000   1.0000   1.0000   1.0000   1.0000
     1.0000   1.0000   0.0000   0.0000   0.0000   0.0000   0.0000   0.0000
     0.0000   0.0000

          k =-0.1667 0.4811-0.2486 (  4094 PWs)   bands (ev):

    -6.3735  -6.3674  -5.4931  -5.4859  -3.9260  -3.9184   0.8223   0.8950
     1.2202   1.2874   2.0695   2.1446   3.5209   3.7307   4.4468   4.5859
     5.3507   5.4808   6.9170   6.9525   8.1008   8.1625   8.5715   8.6158
    10.6032  10.6475

     occupation numbers 
     1.0000   1.0000   1.0000   1.0000   1.0000   1.0000   1.0000   1.0000
     1.0000   1.0000   1.0000   1.0000   1.0000   1.0000   1.0000   1.0000
     1.0000   1.0000   0.0000   0.0000   0.0000   0.0000   0.0000   0.0000
     0.0000   0.0000

          k =-0.3333 0.1924-0.1243 (  4102 PWs)   bands (ev):

    -6.8966  -6.8941  -5.1708  -5.1664  -3.7121  -3.7059   0.9031   0.9307
     1.3824   1.4775   2.4833   2.6184   4.2465   4.4992   4.7312   5.0039
     5.0229   5.2084   6.8059   6.8753   7.3108   7.4072   7.8975   7.9253
     9.3303   9.3916

     occupation numbers 
     1.0000   1.0000   1.0000   1.0000   1.0000   1.0000   1.0000   1.0000
     1.0000   1.0000   1.0000   1.0000   1.0000   1.0000   1.0000   1.0000
     1.0000   1.0000   0.0000   0.0000   0.0000   0.0000   0.0000   0.0000
     0.0000   0.0000

          k =-0.3333 0.1924-0.2486 (  4106 PWs)   bands (ev):

    -6.6302  -6.6254  -5.7385  -5.7323  -3.4058  -3.3996   0.7406   0.7846
     1.6229   1.7378   2.6277   2.7420   3.9809   4.1400   4.3695   4.4665
     5.7656   5.8186   6.6555   6.7193   7.3207   7.4523   7.8335   8.1656
     9.8034   9.9425

     occupation numbers 
     1.0000   1.0000   1.0000   1.0000   1.0000   1.0000   1.0000   1.0000
     1.0000   1.0000   1.0000   1.0000   1.0000   1.0000   1.0000   1.0000
     0.9999   0.9994   0.0000   0.0000   0.0000   0.0000   0.0000   0.0000
     0.0000   0.0000

          k =-0.3333 0.3849-0.1243 (  4096 PWs)   bands (ev):

    -6.5809  -6.5772  -5.1227  -5.1175  -4.0404  -4.0318   0.8349   0.8679
     1.3294   1.4287   2.3830   2.5135   3.1730   3.3403   4.0366   4.1665
     4.8757   4.9936   7.3070   7.3730   8.3391   8.3730   8.4876   8.5599
    10.0298  10.0843

     occupation numbers 
     1.0000   1.0000   1.0000   1.0000   1.0000   1.0000   1.0000   1.0000
     1.0000   1.0000   1.0000   1.0000   1.0000   1.0000   1.0000   1.0000
     1.0000   1.0000   0.0000   0.0000   0.0000   0.0000   0.0000   0.0000
     0.0000   0.0000

          k =-0.3333 0.3849-0.2486 (  4094 PWs)   bands (ev):

    -6.3493  -6.3425  -5.5614  -5.5533  -3.8426  -3.8350   0.5714   0.6136
     1.3170   1.3926   2.1174   2.1915   3.4149   3.5426   4.9822   5.1895
     5.5415   5.7989   6.6582   6.7238   7.4299   7.5006   8.5238   8.6313
    10.3433  10.4200

     occupation numbers 
     1.0000   1.0000   1.0000   1.0000   1.0000   1.0000   1.0000   1.0000
     1.0000   1.0000   1.0000   1.0000   1.0000   1.0000   1.0000   1.0000
     1.0000   0.9997   0.0000   0.0000   0.0000   0.0000   0.0000   0.0000
     0.0000   0.0000

          k = 0.5000-0.0962-0.1243 (  4096 PWs)   bands (ev):

    -6.5922  -6.5887  -5.0350  -5.0302  -4.1555  -4.1466   1.0293   1.0821
     1.4242   1.4954   2.4015   2.5614   2.8235   3.1897   3.6477   3.8391
     5.0991   5.1622   7.1515   7.2127   8.2453   8.2938   9.2848   9.3094
    10.1405  10.1956

     occupation numbers 
     1.0000   1.0000   1.0000   1.0000   1.0000   1.0000   1.0000   1.0000
     1.0000   1.0000   1.0000   1.0000   1.0000   1.0000   1.0000   1.0000
     1.0000   1.0000   0.0000   0.0000   0.0000   0.0000   0.0000   0.0000
     0.0000   0.0000

          k = 0.5000-0.0962-0.2486 (  4094 PWs)   bands (ev):

    -6.3735  -6.3674  -5.4930  -5.4859  -3.9260  -3.9184   0.8223   0.8950
     1.2202   1.2874   2.0694   2.1446   3.5209   3.7307   4.4468   4.5859
     5.3506   5.4808   6.9170   6.9525   8.1007   8.1625   8.5715   8.6158
    10.6031  10.6475

     occupation numbers 
     1.0000   1.0000   1.0000   1.0000   1.0000   1.0000   1.0000   1.0000
     1.0000   1.0000   1.0000   1.0000   1.0000   1.0000   1.0000   1.0000
     1.0000   1.0000   0.0000   0.0000   0.0000   0.0000   0.0000   0.0000
     0.0000   0.0000

     the Fermi energy is     6.1317 ev

!    total energy              =     -85.64380666 Ry
     estimated scf accuracy    <          4.7E-09 Ry
     smearing contrib. (-TS)   =      -0.00009308 Ry
     internal energy E=F+TS    =     -85.64371358 Ry

     The total energy is F=E-TS. E is the sum of the following terms:
     one-electron contribution =      10.22409472 Ry
     hartree contribution      =       3.35332046 Ry
     xc contribution           =     -49.70016653 Ry
     ewald contribution        =     -49.52096224 Ry

     convergence has been achieved in   8 iterations


     Computing stress (Cartesian axis) and pressure

          total   stress  (Ry/bohr**3)                   (kbar)     P=       23.39
   0.00014079   0.00000000   0.00000000           20.71        0.00        0.00
   0.00000000   0.00014075   0.00000002            0.00       20.71        0.00
   0.00000000   0.00000002   0.00019551            0.00        0.00       28.76

     kinetic stress (kbar)   2343.76      0.00      0.00
                                0.00   2343.75     -0.00
                                0.00     -0.00   2212.29

     local   stress (kbar)    165.94     -0.00     -0.00
                               -0.00    165.96     -0.03
                               -0.00     -0.03   -582.04

     nonloc. stress (kbar)   2371.80      0.00      0.00
                                0.00   2371.80      0.00
                                0.00      0.00   2361.70

     hartree stress (kbar)    179.23     -0.00     -0.00
                               -0.00    179.22      0.01
                               -0.00      0.01    359.07

     exc-cor stress (kbar)   7004.80      0.00      0.00
                                0.00   7004.80      0.00
                                0.00      0.00   7007.32

     corecor stress (kbar)  -8277.16     -0.00     -0.00
                               -0.00  -8277.16     -0.00
                               -0.00     -0.00  -8268.72

     ewald   stress (kbar)  -3767.66      0.00      0.00
                                0.00  -3767.68      0.02
                                0.00      0.02  -3060.85

     hubbard stress (kbar)      0.00      0.00      0.00
                                0.00      0.00      0.00
                                0.00      0.00      0.00

     DFT-D   stress (kbar)      0.00      0.00      0.00
                                0.00      0.00      0.00
                                0.00      0.00      0.00

     XDM     stress (kbar)      0.00      0.00      0.00
                                0.00      0.00      0.00
                                0.00      0.00      0.00

     dft-nl  stress (kbar)      0.00      0.00      0.00
                                0.00      0.00      0.00
                                0.00      0.00      0.00

     TS-vdW  stress (kbar)      0.00      0.00      0.00
                                0.00      0.00      0.00
                                0.00      0.00      0.00

     MDB     stress (kbar)      0.00      0.00      0.00
                                0.00      0.00      0.00
                                0.00      0.00      0.00

     3D-RISM stress (kbar)      0.00      0.00      0.00
                                0.00      0.00      0.00
                                0.00      0.00      0.00


     Writing all to output data dir /home/user/workspace/qe_runs/strain_pois_p0050/out/tepois_p0050.save/ :
     XML data file, charge density, pseudopotentials, collected wavefunctions

     init_run     :      3.45s CPU      3.64s WALL (       1 calls)
     electrons    :    107.93s CPU    112.80s WALL (       1 calls)
     stress       :      6.21s CPU      6.59s WALL (       1 calls)

     Called by init_run:
     wfcinit      :      2.54s CPU      2.62s WALL (       1 calls)
     wfcinit:atom :      0.03s CPU      0.03s WALL (      68 calls)
     wfcinit:wfcr :      2.42s CPU      2.50s WALL (      68 calls)
     potinit      :      0.18s CPU      0.19s WALL (       1 calls)
     hinit0       :      0.46s CPU      0.46s WALL (       1 calls)

     Called by electrons:
     c_bands      :     91.30s CPU     93.68s WALL (       8 calls)
     sum_band     :     14.16s CPU     15.87s WALL (       8 calls)
     v_of_rho     :      0.24s CPU      0.24s WALL (       9 calls)
     v_h          :      0.01s CPU      0.01s WALL (       9 calls)
     v_xc         :      0.25s CPU      0.26s WALL (      10 calls)
     newd         :      2.30s CPU      3.16s WALL (       9 calls)
     mix_rho      :      0.13s CPU      0.13s WALL (       8 calls)

     Called by c_bands:
     init_us_2    :      1.17s CPU      1.20s WALL (    1224 calls)
     cegterg      :     77.42s CPU     79.72s WALL (     544 calls)

     Called by sum_band:
     sum_band:wei :      0.01s CPU      0.01s WALL (       8 calls)
     sum_band:loo :     12.07s CPU     12.34s WALL (       8 calls)
     sum_band:buf :      0.23s CPU      0.23s WALL (     544 calls)
     sum_band:ini :      0.53s CPU      0.53s WALL (     544 calls)
     sum_band:cal :      1.12s CPU      1.15s WALL (     544 calls)
     sum_band:bec :      1.29s CPU      1.30s WALL (     544 calls)
     addusdens    :      1.99s CPU      3.42s WALL (       8 calls)
                                        0.00s GPU  (       8 calls)
     addusd:skk   :      0.00s CPU      0.00s WALL (       8 calls)
                                        0.00s GPU  (       8 calls)

     Called by *egterg:
     cdiaghg      :      2.35s CPU      2.38s WALL (    3142 calls)
     cegterg:over :      3.57s CPU      3.62s WALL (    2598 calls)
     cegterg:upda :      2.07s CPU      2.10s WALL (    2598 calls)
     cegterg:last :      3.97s CPU      4.00s WALL (    1543 calls)
     h_psi        :     61.43s CPU     63.56s WALL (    3210 calls)
     s_psi        :      3.68s CPU      3.74s WALL (    3210 calls)
     g_psi        :      0.73s CPU      0.73s WALL (    2598 calls)

     Called by h_psi:
     h_psi:calbec :      4.37s CPU      4.51s WALL (    3210 calls)
     vloc_psi     :     52.93s CPU     54.82s WALL (    3210 calls)
                                        0.00s GPU  (    3210 calls)
     add_vuspsi   :      3.69s CPU      3.75s WALL (    3210 calls)

     General routines
     calbec       :      7.26s CPU      7.45s WALL (    4638 calls)
     fft          :      0.38s CPU      0.38s WALL (     228 calls)
     ffts         :      0.16s CPU      0.16s WALL (      68 calls)
     fftw         :     52.93s CPU     54.73s WALL (  225008 calls)
     interpolate  :      0.18s CPU      0.18s WALL (      36 calls)

     Parallel routines

     PWSCF        :   1m57.85s CPU   2m 3.50s WALL


   This run was terminated on:   8:18:34  20Aug2026            

=------------------------------------------------------------------------------=
   JOB DONE.
=------------------------------------------------------------------------------=
