
     Program PWSCF v.7.5 starts on 20Aug2026 at 15:26:45 

     This program is part of the open-source Quantum ESPRESSO suite
     for quantum simulation of materials; please cite
         "P. Giannozzi et al., J. Phys.:Condens. Matter 21 395502 (2009);
         "P. Giannozzi et al., J. Phys.:Condens. Matter 29 465901 (2017);
         "P. Giannozzi et al., J. Chem. Phys. 152 154105 (2020);
          URL http://www.quantum-espresso.org", 
     in publications or presentations arising from this work. More details at
     http://www.quantum-espresso.org/quote

     Parallel version (MPI & OpenMP), running on       2 processor cores
     Number of MPI processes:                 2
     Threads/MPI process:                     1

     MPI processes distributed on     1 nodes
     1928 MiB available memory on the printing compute node when the environment starts

     Reading input from strain_hc2_clamp_p0050/bands.in

     Current dimensions of program PWSCF are:
     Max number of different atomic species (ntypx) = 10
     Max number of k-points (npk) =  40000
     Max angular momentum in pseudopotentials (lmaxx) =  4
     file Te.rel-pbe-n-rrkjus_psl.1.0.0.UPF: wavefunction(s)  5S renormalized

     Atomic positions and unit cell read from directory:
     /home/user/workspace/qe_runs/strain_hc2_clamp_p0050/out/tehc2clamp_p0050.save/

     Message from routine setup:
     using ibrav=0 with symmetry is DISCOURAGED, use correct ibrav instead

     R & G space division:  proc/nbgrp/npool/nimage =       2
     Subspace diagonalization in iterative solution of the eigenvalue problem:
     a serial algorithm will be used


     Parallelization info
     --------------------
     sticks:   dense  smooth     PW     G-vecs:    dense   smooth      PW
     Min        1362     684    198                77370    27356    4306
     Max        1363     685    199                77371    27363    4307
     Sum        2725    1369    397               154741    54719    8613

     Using Slab Decomposition



     bravais-lattice index     =            0
     lattice parameter (alat)  =       8.4229  a.u.
     unit-cell volume          =     691.8294 (a.u.)^3
     number of atoms/cell      =            3
     number of atomic types    =            1
     number of electrons       =        18.00
     number of Kohn-Sham states=           28
     kinetic-energy cutoff     =      70.0000  Ry
     charge density cutoff     =     560.0000  Ry
     Exchange-correlation= PBE
                           (   1   4   3   4   0   0   0)
     Non magnetic calculation with spin-orbit


     celldm(1)=   8.422887  celldm(2)=   0.000000  celldm(3)=   0.000000
     celldm(4)=   0.000000  celldm(5)=   0.000000  celldm(6)=   0.000000

     crystal axes: (cart. coord. in units of alat)
               a(1) = (   1.000000   0.000000   0.000000 )  
               a(2) = (  -0.500000   0.866025   0.000000 )  
               a(3) = (   0.000000   0.000000   1.336858 )  

     reciprocal axes: (cart. coord. in units 2 pi/alat)
               b(1) = (  1.000000  0.577350 -0.000000 )  
               b(2) = (  0.000000  1.154701  0.000000 )  
               b(3) = (  0.000000 -0.000000  0.748022 )  


     PseudoPot. # 1 for Te read from file:
     /home/user/workspace/qe_runs/pseudo/Te.rel-pbe-n-rrkjus_psl.1.0.0.UPF
     MD5 check sum: 7fd30b6833abd190471e4dcc2367351b
     Pseudo is Ultrasoft + core correction, Zval =  6.0
     Generated using &quot;atomic&quot; code by A. Dal Corso  v.6.3
     Using radial grid of 1245 points, 10 beta functions with: 
                l(1) =   0
                l(2) =   0
                l(3) =   1
                l(4) =   1
                l(5) =   1
                l(6) =   1
                l(7) =   2
                l(8) =   2
                l(9) =   2
               l(10) =   2
     Q(r) pseudized with 0 coefficients 


     atomic species   valence    mass     pseudopotential
     Te                6.00   127.60000     Te( 1.00)

      6 Sym. Ops. (no inversion) found ( 4 have fractional translation)



   Cartesian axes

     site n.     atom                  positions (alat units)
         1        Te     tau(   1) = (   0.2636000   0.0000000   0.4456194  )
         2        Te     tau(   2) = (  -0.1318000   0.2282843   0.8912389  )
         3        Te     tau(   3) = (  -0.1318000  -0.2282843   0.0000000  )

     number of k points=     7  Gaussian smearing, width (Ry)=  0.0100
                       cart. coord. in units 2pi/alat
        k(    1) = (   0.3333333   0.5773502   0.0000000), wk =   0.1428571
        k(    2) = (   0.3333333   0.5773502   0.1496045), wk =   0.1428571
        k(    3) = (   0.3333333   0.5773502   0.2992090), wk =   0.1428571
        k(    4) = (   0.3333333   0.5773502   0.3740112), wk =   0.1428571
        k(    5) = (   0.3333333   0.5773502   0.4488134), wk =   0.1428571
        k(    6) = (   0.3333333   0.5773502   0.5984179), wk =   0.1428571
        k(    7) = (   0.0000000   0.0000000   0.3740112), wk =   0.1428571

     Dense  grid:   154741 G-vectors     FFT dimensions: (  64,  64,  90)

     Smooth grid:    54719 G-vectors     FFT dimensions: (  45,  45,  60)

     Estimated max dynamical RAM per process >     787.39 MB

     Estimated total dynamical RAM >       1.54 GB

     The potential is recalculated from file :
     /home/user/workspace/qe_runs/strain_hc2_clamp_p0050/out/tehc2clamp_p0050.save/charge-density

     Starting wfcs are   24 randomized atomic wfcs +    4 random wfcs

     Band Structure Calculation
     Davidson diagonalization with overlap

     ethr =  5.56E-11,  avg # of iterations = 65.6

     total cpu time spent up to now is       20.7 secs

     End of band structure calculation

          k = 0.3333 0.5774 0.0000 (  6861 PWs)   bands (ev):

    -6.5184  -6.5184  -4.7051  -4.7020  -4.7020  -4.6907   1.1997   1.3861
     1.3861   1.4002   2.7130   2.7130   2.8120   3.0109   3.0109   3.0408
     3.3960   3.3960   8.6555   8.6960   8.8608   8.8608   9.1066   9.1066
    10.8381  10.8381  11.8266  11.8266

          k = 0.3333 0.5774 0.1496 (  6855 PWs)   bands (ev):

    -6.4157  -6.4103  -5.1753  -5.1703  -4.3197  -4.3094   0.8456   0.8733
     1.1990   1.3451   1.9277   2.0419   2.9627   3.1434   4.0094   4.0708
     4.3962   4.6035   7.9241   8.0696   8.5101   8.5640   8.5742   8.6426
    11.1177  11.1683  11.5882  11.6237

          k = 0.3333 0.5774 0.2992 (  6810 PWs)   bands (ev):

    -6.1183  -6.1089  -5.6775  -5.6676  -4.0840  -4.0783   0.7483   0.7506
     0.8085   0.8509   1.1420   1.2479   4.3014   4.4063   5.2888   5.4968
     5.5520   5.9080   6.5019   6.5987   7.4498   7.6164   7.7079   7.7490
    11.7515  11.7721  11.9541  11.9996

          k = 0.3333 0.5774 0.3740 (  6828 PWs)   bands (ev):

    -5.9112  -5.9112  -5.9046  -5.8975  -4.0488  -4.0488   0.7126   0.7126
     0.8637   0.9169   0.9899   0.9899   4.7594   4.7594   5.7276   5.7276
     5.9751   6.0724   6.0724   6.1178   7.2370   7.3069   7.4648   7.4648
    11.8519  11.8519  12.4878  12.4943

          k = 0.3333 0.5774 0.4488 (  6810 PWs)   bands (ev):

    -6.1183  -6.1089  -5.6775  -5.6676  -4.0840  -4.0783   0.7483   0.7506
     0.8085   0.8509   1.1420   1.2479   4.3014   4.4063   5.2888   5.4968
     5.5520   5.9080   6.5019   6.5987   7.4498   7.6164   7.7079   7.7490
    11.7515  11.7721  11.9541  11.9996

          k = 0.3333 0.5774 0.5984 (  6855 PWs)   bands (ev):

    -6.4157  -6.4103  -5.1753  -5.1703  -4.3197  -4.3094   0.8456   0.8733
     1.1990   1.3451   1.9277   2.0419   2.9627   3.1434   4.0094   4.0708
     4.3962   4.6035   7.9241   8.0696   8.5101   8.5640   8.5742   8.6426
    11.1177  11.1683  11.5882  11.6237

          k = 0.0000 0.0000 0.3740 (  6870 PWs)   bands (ev):

    -6.7971  -6.7971  -6.7941  -6.7941  -2.2559  -2.2559   1.7683   1.7683
     3.1351   3.1351   3.4239   3.4239   4.4997   4.4997   4.7416   4.7416
     5.0236   5.0236   6.3907   6.3907   6.5036   6.5036   6.7273   6.7273
     9.9603   9.9603  11.2743  11.2743

     Writing all to output data dir /home/user/workspace/qe_runs/strain_hc2_clamp_p0050/out/tehc2clamp_p0050.save/ :
     XML data file, pseudopotentials, collected wavefunctions

     init_run     :      1.32s CPU      1.60s WALL (       1 calls)
     electrons    :     18.43s CPU     18.98s WALL (       1 calls)

     Called by init_run:
     wfcinit      :      0.00s CPU      0.00s WALL (       1 calls)
     potinit      :      0.18s CPU      0.20s WALL (       1 calls)
     hinit0       :      0.51s CPU      0.52s WALL (       1 calls)

     Called by electrons:
     c_bands      :     18.43s CPU     18.97s WALL (       1 calls)
     v_of_rho     :      0.06s CPU      0.07s WALL (       1 calls)
     newd         :      0.58s CPU      0.82s WALL (       1 calls)

     Called by c_bands:
     init_us_2    :      0.01s CPU      0.01s WALL (       7 calls)
     cegterg      :     17.68s CPU     18.19s WALL (      26 calls)

     Called by *egterg:
     cdiaghg      :      0.40s CPU      0.41s WALL (     466 calls)
     h_psi        :     13.68s CPU     14.16s WALL (     492 calls)
     s_psi        :      0.76s CPU      0.78s WALL (     492 calls)
     g_psi        :      0.19s CPU      0.19s WALL (     459 calls)

     Called by h_psi:
     h_psi:calbec :      0.94s CPU      0.95s WALL (     492 calls)
     vloc_psi     :     11.91s CPU     12.37s WALL (     492 calls)
                                        0.00s GPU  (     492 calls)
     add_vuspsi   :      0.75s CPU      0.76s WALL (     492 calls)

     General routines
     calbec       :      0.94s CPU      0.95s WALL (     492 calls)
     fft          :      0.20s CPU      0.20s WALL (      19 calls)
     ffts         :      0.10s CPU      0.10s WALL (       4 calls)
     fftw         :     10.64s CPU     11.04s WALL (   24108 calls)
     interpolate  :      0.11s CPU      0.11s WALL (       4 calls)
     davcio       :      0.01s CPU      0.02s WALL (      14 calls)

     Parallel routines

     PWSCF        :     19.92s CPU     26.01s WALL


   This run was terminated on:  15:27:11  20Aug2026            

=------------------------------------------------------------------------------=
   JOB DONE.
=------------------------------------------------------------------------------=
