
     Program PWSCF v.7.5 starts on 20Aug2026 at 15:25: 8 

     This program is part of the open-source Quantum ESPRESSO suite
     for quantum simulation of materials; please cite
         "P. Giannozzi et al., J. Phys.:Condens. Matter 21 395502 (2009);
         "P. Giannozzi et al., J. Phys.:Condens. Matter 29 465901 (2017);
         "P. Giannozzi et al., J. Chem. Phys. 152 154105 (2020);
          URL http://www.quantum-espresso.org", 
     in publications or presentations arising from this work. More details at
     http://www.quantum-espresso.org/quote

     Parallel version (MPI & OpenMP), running on       2 processor cores
     Number of MPI processes:                 2
     Threads/MPI process:                     1

     MPI processes distributed on     1 nodes
     1894 MiB available memory on the printing compute node when the environment starts

     Reading input from strain_hc2_clamp_p0050/scf.in

     Current dimensions of program PWSCF are:
     Max number of different atomic species (ntypx) = 10
     Max number of k-points (npk) =  40000
     Max angular momentum in pseudopotentials (lmaxx) =  4
     file Te.rel-pbe-n-rrkjus_psl.1.0.0.UPF: wavefunction(s)  5S renormalized
     Message from routine setup:
     using ibrav=0 with symmetry is DISCOURAGED, use correct ibrav instead

     R & G space division:  proc/nbgrp/npool/nimage =       2
     Subspace diagonalization in iterative solution of the eigenvalue problem:
     a serial algorithm will be used


     Parallelization info
     --------------------
     sticks:   dense  smooth     PW     G-vecs:    dense   smooth      PW
     Min        1362     684    189                77370    27356    4139
     Max        1363     685    190                77371    27363    4144
     Sum        2725    1369    379               154741    54719    8283

     Using Slab Decomposition



     bravais-lattice index     =            0
     lattice parameter (alat)  =       8.4229  a.u.
     unit-cell volume          =     691.8294 (a.u.)^3
     number of atoms/cell      =            3
     number of atomic types    =            1
     number of electrons       =        18.00
     number of Kohn-Sham states=           28
     kinetic-energy cutoff     =      70.0000  Ry
     charge density cutoff     =     560.0000  Ry
     scf convergence threshold =      1.0E-08
     mixing beta               =       0.7000
     number of iterations used =            8  plain     mixing
     Exchange-correlation= PBE
                           (   1   4   3   4   0   0   0)
     Non magnetic calculation with spin-orbit


     celldm(1)=   8.422887  celldm(2)=   0.000000  celldm(3)=   0.000000
     celldm(4)=   0.000000  celldm(5)=   0.000000  celldm(6)=   0.000000

     crystal axes: (cart. coord. in units of alat)
               a(1) = (   1.000000   0.000000   0.000000 )  
               a(2) = (  -0.500000   0.866025   0.000000 )  
               a(3) = (   0.000000   0.000000   1.336858 )  

     reciprocal axes: (cart. coord. in units 2 pi/alat)
               b(1) = (  1.000000  0.577350 -0.000000 )  
               b(2) = (  0.000000  1.154701  0.000000 )  
               b(3) = (  0.000000 -0.000000  0.748022 )  


     PseudoPot. # 1 for Te read from file:
     /home/user/workspace/qe_runs/pseudo/Te.rel-pbe-n-rrkjus_psl.1.0.0.UPF
     MD5 check sum: 7fd30b6833abd190471e4dcc2367351b
     Pseudo is Ultrasoft + core correction, Zval =  6.0
     Generated using &quot;atomic&quot; code by A. Dal Corso  v.6.3
     Using radial grid of 1245 points, 10 beta functions with: 
                l(1) =   0
                l(2) =   0
                l(3) =   1
                l(4) =   1
                l(5) =   1
                l(6) =   1
                l(7) =   2
                l(8) =   2
                l(9) =   2
               l(10) =   2
     Q(r) pseudized with 0 coefficients 


     atomic species   valence    mass     pseudopotential
     Te                6.00   127.60000     Te( 1.00)

      6 Sym. Ops. (no inversion) found ( 4 have fractional translation)



   Cartesian axes

     site n.     atom                  positions (alat units)
         1        Te     tau(   1) = (   0.2636000   0.0000000   0.4456194  )
         2        Te     tau(   2) = (  -0.1318000   0.2282843   0.8912389  )
         3        Te     tau(   3) = (  -0.1318000  -0.2282843   0.0000000  )

     number of k points=    34  Gaussian smearing, width (Ry)=  0.0100
                       cart. coord. in units 2pi/alat
        k(    1) = (   0.0000000   0.0000000   0.0000000), wk =   0.0046296
        k(    2) = (   0.0000000   0.0000000   0.1246704), wk =   0.0092593
        k(    3) = (   0.0000000   0.0000000   0.2493408), wk =   0.0092593
        k(    4) = (   0.0000000   0.0000000  -0.3740112), wk =   0.0046296
        k(    5) = (   0.0000000   0.1924501   0.0000000), wk =   0.0277778
        k(    6) = (   0.0000000   0.1924501   0.1246704), wk =   0.0277778
        k(    7) = (   0.0000000   0.1924501   0.2493408), wk =   0.0277778
        k(    8) = (   0.0000000   0.1924501  -0.3740112), wk =   0.0277778
        k(    9) = (   0.0000000   0.3849002   0.0000000), wk =   0.0277778
        k(   10) = (   0.0000000   0.3849002   0.1246704), wk =   0.0277778
        k(   11) = (   0.0000000   0.3849002   0.2493408), wk =   0.0277778
        k(   12) = (   0.0000000   0.3849002  -0.3740112), wk =   0.0277778
        k(   13) = (   0.0000000  -0.5773503   0.0000000), wk =   0.0138889
        k(   14) = (   0.0000000  -0.5773503   0.1246704), wk =   0.0277778
        k(   15) = (   0.0000000  -0.5773503   0.2493408), wk =   0.0277778
        k(   16) = (   0.0000000  -0.5773503  -0.3740112), wk =   0.0138889
        k(   17) = (   0.1666667   0.2886751   0.0000000), wk =   0.0277778
        k(   18) = (   0.1666667   0.2886751   0.1246704), wk =   0.0555556
        k(   19) = (   0.1666667   0.2886751   0.2493408), wk =   0.0555556
        k(   20) = (   0.1666667   0.2886751  -0.3740112), wk =   0.0277778
        k(   21) = (   0.1666667   0.4811252   0.0000000), wk =   0.0555556
        k(   22) = (   0.1666667   0.4811252   0.1246704), wk =   0.0555556
        k(   23) = (   0.1666667   0.4811252   0.2493408), wk =   0.0555556
        k(   24) = (   0.1666667   0.4811252  -0.3740112), wk =   0.0555556
        k(   25) = (   0.3333333   0.5773503   0.0000000), wk =   0.0092593
        k(   26) = (   0.3333333   0.5773503   0.1246704), wk =   0.0185185
        k(   27) = (   0.3333333   0.5773503   0.2493408), wk =   0.0185185
        k(   28) = (   0.3333333   0.5773503  -0.3740112), wk =   0.0092593
        k(   29) = (   0.0000000   0.1924501  -0.1246704), wk =   0.0277778
        k(   30) = (   0.0000000   0.1924501  -0.2493408), wk =   0.0277778
        k(   31) = (   0.0000000   0.3849002  -0.1246704), wk =   0.0277778
        k(   32) = (   0.0000000   0.3849002  -0.2493408), wk =   0.0277778
        k(   33) = (  -0.1666667   0.4811252  -0.1246704), wk =   0.0555556
        k(   34) = (  -0.1666667   0.4811252  -0.2493408), wk =   0.0555556

     Dense  grid:   154741 G-vectors     FFT dimensions: (  64,  64,  90)

     Smooth grid:    54719 G-vectors     FFT dimensions: (  45,  45,  60)

     Estimated max dynamical RAM per process >     972.68 MB

     Estimated total dynamical RAM >       1.90 GB

     Initial potential from superposition of free atoms

     starting charge      17.9993, renormalised to      18.0000
     Starting wfcs are   24 randomized atomic wfcs +    4 random wfcs

     total cpu time spent up to now is        4.4 secs

     per-process dynamical memory:   193.5 Mb

     Self-consistent Calculation

     iteration #  1     ecut=    70.00 Ry     beta= 0.70
     Davidson diagonalization with overlap
     ethr =  1.00E-02,  avg # of iterations =  9.3

     Threshold (ethr) on eigenvalues was too large:
     Diagonalizing with lowered threshold

     Davidson diagonalization with overlap
     ethr =  8.90E-05,  avg # of iterations =  8.3

     total cpu time spent up to now is       35.1 secs

     total energy              =     -85.64314032 Ry
     estimated scf accuracy    <       0.01529442 Ry

     iteration #  2     ecut=    70.00 Ry     beta= 0.70
     Davidson diagonalization with overlap
     ethr =  8.50E-05,  avg # of iterations =  1.5

     total cpu time spent up to now is       45.3 secs

     total energy              =     -85.64422724 Ry
     estimated scf accuracy    <       0.00111154 Ry

     iteration #  3     ecut=    70.00 Ry     beta= 0.70
     Davidson diagonalization with overlap
     ethr =  6.18E-06,  avg # of iterations =  6.1

     total cpu time spent up to now is       57.8 secs

     total energy              =     -85.64439582 Ry
     estimated scf accuracy    <       0.00004518 Ry

     iteration #  4     ecut=    70.00 Ry     beta= 0.70
     Davidson diagonalization with overlap
     ethr =  2.51E-07,  avg # of iterations =  4.5

     total cpu time spent up to now is       71.6 secs

     total energy              =     -85.64442773 Ry
     estimated scf accuracy    <       0.00000326 Ry

     iteration #  5     ecut=    70.00 Ry     beta= 0.70
     Davidson diagonalization with overlap
     ethr =  1.81E-08,  avg # of iterations =  2.4

     total cpu time spent up to now is       83.7 secs

     total energy              =     -85.64442833 Ry
     estimated scf accuracy    <       0.00000036 Ry

     iteration #  6     ecut=    70.00 Ry     beta= 0.70
     Davidson diagonalization with overlap
     ethr =  1.99E-09,  avg # of iterations =  2.8

     total cpu time spent up to now is       95.4 secs

     End of self-consistent calculation

          k = 0.0000 0.0000 0.0000 (  6845 PWs)   bands (ev):

    -7.6808  -7.6808  -4.3871  -4.3871  -4.3858  -4.3858   2.7142   2.7142
     2.8989   2.8989   3.3333   3.3333   4.2877   4.2877   4.3408   4.3408
     5.1925   5.1925   6.5808   6.5808   7.1956   7.1956   7.7505   7.7505
    10.9080  10.9081  10.9101  10.9102

          k = 0.0000 0.0000 0.1247 (  6828 PWs)   bands (ev):

    -7.5815  -7.5804  -5.3151  -5.3122  -3.4304  -3.4291   2.4743   2.4799
     2.8923   3.0598   3.1461   3.5922   4.2450   4.3554   4.4271   4.4868
     5.1080   5.2159   6.4670   6.4913   6.9711   7.0583   7.4723   7.4876
    10.5772  10.6144  11.4871  11.4920

          k = 0.0000 0.0000 0.2493 (  6876 PWs)   bands (ev):

    -7.2846  -7.2824  -6.1325  -6.1293  -2.6127  -2.6094   1.9936   2.0353
     3.0392   3.1416   3.2030   3.6183   4.3605   4.5153   4.5181   4.7662
     4.9524   5.1715   6.3528   6.3626   6.6172   6.7932   6.9358   7.0098
    10.1400  10.1583  11.3043  11.6343

          k = 0.0000 0.0000-0.3740 (  6870 PWs)   bands (ev):

    -6.7970  -6.7970  -6.7941  -6.7941  -2.2559  -2.2559   1.7684   1.7684
     3.1352   3.1352   3.4239   3.4239   4.4998   4.4998   4.7417   4.7417
     5.0236   5.0236   6.3907   6.3907   6.5036   6.5036   6.7273   6.7273
     9.9603   9.9603  11.2745  11.2795

          k = 0.0000 0.1925 0.0000 (  6833 PWs)   bands (ev):

    -7.5012  -7.5009  -4.4502  -4.4447  -4.3351  -4.3310   1.7168   1.8118
     2.2730   2.4214   2.7779   3.0114   4.5055   4.6741   4.8813   4.9704
     5.1550   5.2688   6.6838   6.7615   6.9174   6.9998   7.5014   7.5998
    10.3509  10.3900  10.9461  10.9561

          k = 0.0000 0.1925 0.1247 (  6856 PWs)   bands (ev):

    -7.4033  -7.4019  -5.2555  -5.2524  -3.5278  -3.5251   1.8123   1.8869
     1.9684   2.0980   2.8757   3.0612   4.6116   4.7415   4.9228   5.1161
     5.2993   5.3943   6.5302   6.5565   6.7191   6.8570   7.3632   7.4250
     9.9540   9.9623  11.6013  11.6191

          k = 0.0000 0.1925 0.2493 (  6835 PWs)   bands (ev):

    -7.1137  -7.1111  -6.0188  -6.0149  -2.8718  -2.8676   1.6567   1.7456
     2.1553   2.3228   2.9761   3.1558   4.4061   4.4830   4.6150   4.7254
     4.8879   4.9927   6.5924   6.7000   6.9279   7.0788   7.6272   7.6409
     9.9790  10.0052  11.3841  11.4178

          k = 0.0000 0.1925-0.3740 (  6844 PWs)   bands (ev):

    -6.6641  -6.6623  -6.6255  -6.6241  -2.6312  -2.6305   1.6213   1.6992
     2.6102   2.8477   2.9263   3.1002   3.8753   4.1078   4.2165   4.3704
     4.5736   4.7715   6.7251   6.8633   7.3058   7.4347   7.8325   7.8396
    10.3886  10.4102  10.8903  10.9226

          k = 0.0000 0.3849 0.0000 (  6826 PWs)   bands (ev):

    -7.0359  -7.0352  -4.7515  -4.7462  -4.2150  -4.2112   1.0110   1.0669
     1.5859   1.7447   2.3022   2.5139   3.4665   3.5412   4.7839   4.9327
     5.0168   5.1630   6.7943   6.9023   7.0350   7.0733   8.6923   8.7098
     9.3391   9.3675  11.9273  11.9562

          k = 0.0000 0.3849 0.1247 (  6828 PWs)   bands (ev):

    -6.9405  -6.9380  -5.2254  -5.2211  -3.7825  -3.7764   0.8618   0.8896
     1.3393   1.4355   2.4217   2.5577   4.1811   4.4327   4.6639   4.9328
     4.9514   5.1444   6.7277   6.7951   7.2235   7.3204   7.8128   7.8407
     9.2725   9.3322  12.3757  12.4151

          k = 0.0000 0.3849 0.2493 (  6844 PWs)   bands (ev):

    -6.6755  -6.6708  -5.7890  -5.7829  -3.4794  -3.4733   0.6990   0.7430
     1.5778   1.6930   2.5643   2.6783   3.9151   4.0760   4.3022   4.4016
     5.6952   5.7484   6.5851   6.6515   7.2433   7.3733   7.7404   8.0695
     9.7425   9.8775  12.2248  12.2532

          k = 0.0000 0.3849-0.3740 (  6846 PWs)   bands (ev):

    -6.3651  -6.3632  -6.1800  -6.1780  -3.4462  -3.4447   0.7891   0.8305
     2.0846   2.2082   2.4542   2.5713   3.6672   3.7342   3.9533   4.0347
     4.8875   4.9884   7.1457   7.3421   7.8099   7.9159   8.2236   8.4298
    10.4002  10.5476  11.4446  11.4766

          k = 0.0000-0.5774 0.0000 (  6828 PWs)   bands (ev):

    -6.6862  -6.6862  -5.0604  -5.0604  -4.1463  -4.1463   0.9837   0.9837
     1.4793   1.4793   2.3124   2.3124   2.5209   2.5209   4.7734   4.7734
     5.0546   5.0546   6.8476   6.8476   6.9697   6.9697   8.9630   8.9630
     9.6222   9.6222  13.3051  13.3051

          k = 0.0000-0.5774 0.1247 (  6822 PWs)   bands (ev):

    -6.6130  -6.6093  -5.2211  -5.2169  -4.0934  -4.0856   0.9451   0.9842
     1.1471   1.2544   2.2561   2.4147   3.1344   3.3118   4.4079   4.5730
     4.7271   4.8096   6.8453   6.8836   7.4310   7.6422   9.0712   9.0903
     9.3049   9.4165  12.8558  12.8698

          k = 0.0000-0.5774 0.2493 (  6846 PWs)   bands (ev):

    -6.4043  -6.3979  -5.5733  -5.5658  -3.9986  -3.9917   0.4353   0.4653
     1.5900   1.6970   2.3658   2.4803   3.5670   3.8436   4.0303   4.2194
     4.6894   4.8869   7.1937   7.2731   7.7865   7.8693   8.1916   8.5189
    10.0220  10.2345  11.7036  11.7281

          k = 0.0000-0.5774-0.3740 (  6840 PWs)   bands (ev):

    -6.1920  -6.1920  -5.8406  -5.8406  -3.9527  -3.9527   0.2525   0.2525
     2.1187   2.1187   2.2488   2.2488   3.5312   3.5312   3.8851   3.8851
     5.7077   5.7077   6.6599   6.6599   7.7155   7.7155   8.5839   8.5839
    10.4914  10.4914  11.2882  11.2882

          k = 0.1667 0.2887 0.0000 (  6819 PWs)   bands (ev):

    -7.1744  -7.1738  -4.5791  -4.5691  -4.3208  -4.3125   1.2043   1.3175
     1.4701   1.5781   2.8274   2.9900   3.9900   4.1440   4.2691   4.3387
     4.7377   4.7864   7.4315   7.4676   7.5206   7.5547   7.8893   7.9083
    10.2283  10.2347  10.5002  10.5026

          k = 0.1667 0.2887 0.1247 (  6841 PWs)   bands (ev):

    -7.0841  -7.0821  -5.1495  -5.1456  -3.8139  -3.8088   1.2151   1.2799
     1.6281   1.6854   2.7381   2.8735   3.5543   3.6492   4.3246   4.4421
     5.3562   5.4230   6.7901   6.8608   7.5837   7.6239   8.1899   8.2209
    10.1999  10.2298  10.8114  10.8497

          k = 0.1667 0.2887 0.2493 (  6843 PWs)   bands (ev):

    -6.8167  -6.8129  -5.8087  -5.8037  -3.3746  -3.3690   1.2245   1.3176
     1.7241   1.8581   2.5742   2.6900   3.2491   3.4295   4.7787   4.9072
     5.1021   5.2235   6.7339   6.7891   7.5786   7.5886   8.3749   8.4279
    10.3792  10.3995  11.5803  11.6021

          k = 0.1667 0.2887-0.3740 (  6842 PWs)   bands (ev):

    -6.4288  -6.4258  -6.3322  -6.3291  -3.2088  -3.2073   1.2007   1.2969
     2.0223   2.0363   2.1492   2.2496   3.8125   3.9726   4.3714   4.4046
     5.0919   5.1770   6.6593   6.7386   8.0314   8.0475   8.2344   8.2542
    10.5755  10.6147  11.1810  11.1861

          k = 0.1667 0.4811 0.0000 (  6843 PWs)   bands (ev):

    -6.7125  -6.7117  -4.8798  -4.8737  -4.3348  -4.3294   1.0562   1.1281
     1.3293   1.4372   2.3982   2.5969   2.8888   3.0115   3.9179   4.0060
     4.1592   4.1993   7.6770   7.7135   8.0298   8.0432   9.1369   9.1465
     9.8210   9.8369  11.6714  11.6921

          k = 0.1667 0.4811 0.1247 (  6846 PWs)   bands (ev):

    -6.6299  -6.6262  -5.1792  -5.1741  -4.1071  -4.0987   0.7957   0.8284
     1.2866   1.3866   2.3278   2.4586   3.1188   3.2871   3.9796   4.1111
     4.8060   4.9256   7.2249   7.2904   8.2512   8.2840   8.3993   8.4697
     9.9591  10.0126  11.8670  11.8893

          k = 0.1667 0.4811 0.2493 (  6845 PWs)   bands (ev):

    -6.3995  -6.3928  -5.6157  -5.6077  -3.9100  -3.9024   0.5329   0.5752
     1.2720   1.3474   2.0628   2.1369   3.3626   3.4901   4.9127   5.1205
     5.4702   5.7274   6.5866   6.6511   7.3531   7.4235   8.4348   8.5415
    10.2773  10.3530  12.2872  12.3461

          k = 0.1667 0.4811-0.3740 (  6860 PWs)   bands (ev):

    -6.1435  -6.1413  -5.9292  -5.9262  -3.8657  -3.8640   0.5199   0.5474
     1.4546   1.4845   1.5970   1.6798   4.1964   4.2998   4.6906   4.7316
     5.4880   5.5642   6.7844   6.8859   7.4689   7.5321   8.1084   8.1548
    10.7540  10.7879  11.6561  11.6705

          k = 0.3333 0.5774 0.0000 (  6861 PWs)   bands (ev):

    -6.5183  -6.5183  -4.7050  -4.7020  -4.7020  -4.6907   1.1998   1.3862
     1.3862   1.4002   2.7131   2.7131   2.8120   3.0109   3.0109   3.0408
     3.3961   3.3961   8.6555   8.6960   8.8609   8.8609   9.1066   9.1066
    10.8381  10.8381  11.8266  11.8266

          k = 0.3333 0.5774 0.1247 (  6858 PWs)   bands (ev):

    -6.4471  -6.4425  -5.0919  -5.0883  -4.3753  -4.3655   0.9100   0.9241
     1.2812   1.4463   2.0888   2.1966   2.8026   2.9871   3.7998   3.8398
     4.1806   4.3739   8.1147   8.2695   8.5928   8.7104   8.7190   8.7508
    11.0294  11.0769  11.6029  11.6566

          k = 0.3333 0.5774 0.2493 (  6837 PWs)   bands (ev):

    -6.2365  -6.2282  -5.5123  -5.5034  -4.1409  -4.1323   0.7265   0.7796
     0.8878   0.9463   1.3645   1.4758   3.8329   3.9668   4.8788   5.0300
     5.2243   5.5146   6.9923   7.1069   7.8213   7.9120   8.0273   8.0588
    11.6212  11.6614  11.6650  11.6813

          k = 0.3333 0.5774-0.3740 (  6828 PWs)   bands (ev):

    -5.9111  -5.9111  -5.9045  -5.8974  -4.0489  -4.0489   0.7126   0.7126
     0.8637   0.9169   0.9899   0.9899   4.7595   4.7595   5.7277   5.7277
     5.9751   6.0725   6.0725   6.1178   7.2369   7.3069   7.4648   7.4648
    11.8519  11.8520  12.4982  12.5106

          k = 0.0000 0.1925-0.1247 (  6856 PWs)   bands (ev):

    -7.4060  -7.4046  -5.2280  -5.2249  -3.5838  -3.5811   1.7757   1.8617
     2.4994   2.6974   2.7714   3.1333   4.2104   4.2611   4.3539   4.5274
     4.7795   4.9655   6.9261   7.0186   7.3297   7.4530   7.7431   7.8362
    10.6424  10.6829  10.9616  10.9976

          k = 0.0000 0.1925-0.2493 (  6835 PWs)   bands (ev):

    -7.1196  -7.1170  -6.0015  -5.9978  -2.9214  -2.9171   1.7780   1.8455
     2.6248   2.7860   3.0326   3.2779   3.6943   3.9158   4.1335   4.2191
     4.5986   4.7508   6.9524   6.9936   7.5970   7.6943   7.7525   7.8230
    10.5830  10.6024  11.2234  11.2440

          k = 0.0000 0.3849-0.1247 (  6828 PWs)   bands (ev):

    -6.9582  -6.9559  -5.0647  -5.0609  -4.0334  -4.0274   1.2825   1.3946
     1.7797   1.8981   2.5069   2.7413   2.7619   2.9863   4.3101   4.5578
     4.7550   4.9145   6.9209   7.0125   7.6241   7.8478   9.0959   9.1086
     9.9145  10.0253  11.7523  11.7688

          k = 0.0000 0.3849-0.2493 (  6844 PWs)   bands (ev):

    -6.7139  -6.7099  -5.6772  -5.6721  -3.6642  -3.6583   1.1627   1.2365
     1.9206   2.0801   2.5206   2.6659   3.2472   3.6092   3.8621   4.0300
     4.3588   4.5813   7.3236   7.3703   8.1718   8.3210   8.7797   8.7946
    10.5366  10.6465  11.4011  11.4174

          k =-0.1667 0.4811-0.1247 (  6846 PWs)   bands (ev):

    -6.6410  -6.6375  -5.0931  -5.0884  -4.2195  -4.2108   0.9874   1.0394
     1.3791   1.4509   2.3520   2.5142   2.7658   3.1357   3.5901   3.7819
     5.0305   5.0941   7.0728   7.1335   8.1551   8.2035   9.1883   9.2121
    10.0725  10.1268  11.7019  11.7129

          k =-0.1667 0.4811-0.2493 (  6845 PWs)   bands (ev):

    -6.4233  -6.4173  -5.5485  -5.5415  -3.9912  -3.9837   0.7810   0.8537
     1.1746   1.2416   2.0164   2.0915   3.4694   3.6799   4.3805   4.5205
     5.2783   5.4091   6.8453   6.8800   8.0133   8.0754   8.4854   8.5285
    10.5405  10.5845  11.6527  11.6789

     the Fermi energy is     6.0614 ev

!    total energy              =     -85.64442842 Ry
     estimated scf accuracy    <          9.5E-09 Ry
     smearing contrib. (-TS)   =      -0.00009295 Ry
     internal energy E=F+TS    =     -85.64433547 Ry

     The total energy is F=E-TS. E is the sum of the following terms:
     one-electron contribution =      10.07076300 Ry
     hartree contribution      =       3.38584455 Ry
     xc contribution           =     -49.69057598 Ry
     ewald contribution        =     -49.41036703 Ry

     convergence has been achieved in   6 iterations

     Writing all to output data dir /home/user/workspace/qe_runs/strain_hc2_clamp_p0050/out/tehc2clamp_p0050.save/ :
     XML data file, charge density, pseudopotentials, collected wavefunctions

     init_run     :      3.94s CPU      4.30s WALL (       1 calls)
     electrons    :     84.69s CPU     90.99s WALL (       1 calls)

     Called by init_run:
     wfcinit      :      2.59s CPU      2.67s WALL (       1 calls)
     potinit      :      0.20s CPU      0.22s WALL (       1 calls)
     hinit0       :      0.52s CPU      0.52s WALL (       1 calls)

     Called by electrons:
     c_bands      :     65.65s CPU     67.07s WALL (       7 calls)
     sum_band     :     14.99s CPU     18.28s WALL (       7 calls)
     v_of_rho     :      0.42s CPU      0.44s WALL (       7 calls)
     newd         :      4.01s CPU      5.81s WALL (       7 calls)
     mix_rho      :      0.15s CPU      0.17s WALL (       7 calls)

     Called by c_bands:
     init_us_2    :      0.85s CPU      0.86s WALL (     510 calls)
     cegterg      :     56.65s CPU     58.05s WALL (     238 calls)

     Called by *egterg:
     cdiaghg      :      1.16s CPU      1.18s WALL (    1391 calls)
     h_psi        :     47.19s CPU     48.54s WALL (    1459 calls)
     s_psi        :      2.44s CPU      2.46s WALL (    1459 calls)
     g_psi        :      0.44s CPU      0.45s WALL (    1187 calls)

     Called by h_psi:
     h_psi:calbec :      2.94s CPU      3.03s WALL (    1459 calls)
     vloc_psi     :     41.60s CPU     42.82s WALL (    1459 calls)
                                        0.00s GPU  (    1459 calls)
     add_vuspsi   :      2.36s CPU      2.39s WALL (    1459 calls)

     General routines
     calbec       :      3.78s CPU      3.89s WALL (    1697 calls)
     fft          :      0.46s CPU      0.48s WALL (     165 calls)
     ffts         :      0.14s CPU      0.14s WALL (      56 calls)
     fftw         :     43.26s CPU     44.52s WALL (   92528 calls)
     interpolate  :      0.18s CPU      0.18s WALL (      28 calls)

     Parallel routines

     PWSCF        :   1m28.83s CPU   1m35.71s WALL


   This run was terminated on:  15:26:44  20Aug2026            

=------------------------------------------------------------------------------=
   JOB DONE.
=------------------------------------------------------------------------------=
