
     Program PWSCF v.7.5 starts on 20Aug2026 at  7:17:29 

     This program is part of the open-source Quantum ESPRESSO suite
     for quantum simulation of materials; please cite
         "P. Giannozzi et al., J. Phys.:Condens. Matter 21 395502 (2009);
         "P. Giannozzi et al., J. Phys.:Condens. Matter 29 465901 (2017);
         "P. Giannozzi et al., J. Chem. Phys. 152 154105 (2020);
          URL http://www.quantum-espresso.org", 
     in publications or presentations arising from this work. More details at
     http://www.quantum-espresso.org/quote

     Parallel version (MPI & OpenMP), running on       2 processor cores
     Number of MPI processes:                 2
     Threads/MPI process:                     1

     MPI processes distributed on     1 nodes
     4340 MiB available memory on the printing compute node when the environment starts

     Reading input from scf.in

     Current dimensions of program PWSCF are:
     Max number of different atomic species (ntypx) = 10
     Max number of k-points (npk) =  40000
     Max angular momentum in pseudopotentials (lmaxx) =  4
     file Te.rel-pbe-n-rrkjus_psl.1.0.0.UPF: wavefunction(s)  5S renormalized
     Message from routine setup:
     using ibrav=0 with symmetry is DISCOURAGED, use correct ibrav instead

     R & G space division:  proc/nbgrp/npool/nimage =       2
     Subspace diagonalization in iterative solution of the eigenvalue problem:
     a serial algorithm will be used


     Parallelization info
     --------------------
     sticks:   dense  smooth     PW     G-vecs:    dense   smooth      PW
     Min         741     483    141                30215    16410    2589
     Max         742     484    142                30216    16411    2592
     Sum        1483     967    283                60431    32821    5181

     Using Slab Decomposition



     bravais-lattice index     =            0
     lattice parameter (alat)  =       8.4229  a.u.
     unit-cell volume          =     688.4532 (a.u.)^3
     number of atoms/cell      =            3
     number of atomic types    =            1
     number of electrons       =        18.00
     number of Kohn-Sham states=           26
     kinetic-energy cutoff     =      50.0000  Ry
     charge density cutoff     =     300.0000  Ry
     scf convergence threshold =      1.0E-08
     mixing beta               =       0.4000
     number of iterations used =            8  plain     mixing
     Exchange-correlation= PBE
                           (   1   4   3   4   0   0   0)
     Non magnetic calculation with spin-orbit


     celldm(1)=   8.422887  celldm(2)=   0.000000  celldm(3)=   0.000000
     celldm(4)=   0.000000  celldm(5)=   0.000000  celldm(6)=   0.000000

     crystal axes: (cart. coord. in units of alat)
               a(1) = (   1.000000   0.000000   0.000000 )  
               a(2) = (  -0.500000   0.866108   0.000000 )  
               a(3) = (   0.000000   0.000000   1.330207 )  

     reciprocal axes: (cart. coord. in units 2 pi/alat)
               b(1) = (  1.000000  0.577295 -0.000000 )  
               b(2) = (  0.000000  1.154590  0.000000 )  
               b(3) = (  0.000000 -0.000000  0.751763 )  


     PseudoPot. # 1 for Te read from file:
     /home/user/workspace/qe_runs/pseudo/Te.rel-pbe-n-rrkjus_psl.1.0.0.UPF
     MD5 check sum: 7fd30b6833abd190471e4dcc2367351b
     Pseudo is Ultrasoft + core correction, Zval =  6.0
     Generated using &quot;atomic&quot; code by A. Dal Corso  v.6.3
     Using radial grid of 1245 points, 10 beta functions with: 
                l(1) =   0
                l(2) =   0
                l(3) =   1
                l(4) =   1
                l(5) =   1
                l(6) =   1
                l(7) =   2
                l(8) =   2
                l(9) =   2
               l(10) =   2
     Q(r) pseudized with 0 coefficients 


     atomic species   valence    mass     pseudopotential
     Te                6.00   127.60000     Te( 1.00)

      2 Sym. Ops. (no inversion) found ( 1 have fractional translation)


                                    s                        frac. trans.

      isym =  1     identity                                     

 cryst.   s( 1) = (     1          0          0      )
                  (     0          1          0      )
                  (     0          0          1      )

 cart.    s( 1) = (  1.0000000  0.0000000  0.0000000 )
                  (  0.0000000  1.0000000  0.0000000 )
                  (  0.0000000  0.0000000  1.0000000 )


      isym =  2     180 deg rotation - cart. axis [1,0,0]        

 cryst.   s( 2) = (     1          0          0      )    f =(  0.0000000 )
                  (    -1         -1          0      )       (  0.0000000 )
                  (     0          0         -1      )       (  0.3333334 )

 cart.    s( 2) = (  1.0000000  0.0000000  0.0000000 )    f =(  0.0000000 )
                  (  0.0000000 -1.0000000  0.0000000 )       (  0.0000000 )
                  (  0.0000000  0.0000000 -1.0000000 )       (  0.4434025 )


   Cartesian axes

     site n.     atom                  positions (alat units)
         1        Te     tau(   1) = (   0.2636000   0.0000000   0.4434024  )
         2        Te     tau(   2) = (  -0.1318000   0.2283061   0.8868049  )
         3        Te     tau(   3) = (  -0.1318000  -0.2283061   0.0000000  )

   Crystallographic axes

     site n.     atom                  positions (cryst. coord.)
         1        Te     tau(   1) = (  0.2636000  0.0000000  0.3333333  )
         2        Te     tau(   2) = (  0.0000000  0.2636000  0.6666667  )
         3        Te     tau(   3) = ( -0.2636000 -0.2636000  0.0000000  )

     number of k points=    68  Gaussian smearing, width (Ry)=  0.0100
                       cart. coord. in units 2pi/alat
        k(    1) = (   0.0000000   0.0000000   0.0000000), wk =   0.0046296
        k(    2) = (   0.0000000   0.0000000   0.1252938), wk =   0.0092593
        k(    3) = (   0.0000000   0.0000000   0.2505875), wk =   0.0092593
        k(    4) = (   0.0000000   0.0000000  -0.3758813), wk =   0.0046296
        k(    5) = (   0.0000000   0.1924317   0.0000000), wk =   0.0092593
        k(    6) = (   0.0000000   0.1924317   0.1252938), wk =   0.0092593
        k(    7) = (   0.0000000   0.1924317   0.2505875), wk =   0.0092593
        k(    8) = (   0.0000000   0.1924317  -0.3758813), wk =   0.0092593
        k(    9) = (   0.0000000   0.3848634   0.0000000), wk =   0.0092593
        k(   10) = (   0.0000000   0.3848634   0.1252938), wk =   0.0092593
        k(   11) = (   0.0000000   0.3848634   0.2505875), wk =   0.0092593
        k(   12) = (   0.0000000   0.3848634  -0.3758813), wk =   0.0092593
        k(   13) = (   0.0000000  -0.5772951   0.0000000), wk =   0.0046296
        k(   14) = (   0.0000000  -0.5772951   0.1252938), wk =   0.0092593
        k(   15) = (   0.0000000  -0.5772951   0.2505875), wk =   0.0092593
        k(   16) = (   0.0000000  -0.5772951  -0.3758813), wk =   0.0046296
        k(   17) = (   0.1666667   0.0962159   0.0000000), wk =   0.0185185
        k(   18) = (   0.1666667   0.0962159   0.1252938), wk =   0.0185185
        k(   19) = (   0.1666667   0.0962159   0.2505875), wk =   0.0185185
        k(   20) = (   0.1666667   0.0962159  -0.3758813), wk =   0.0185185
        k(   21) = (   0.1666667   0.2886476   0.0000000), wk =   0.0185185
        k(   22) = (   0.1666667   0.2886476   0.1252938), wk =   0.0185185
        k(   23) = (   0.1666667   0.2886476   0.2505875), wk =   0.0185185
        k(   24) = (   0.1666667   0.2886476  -0.3758813), wk =   0.0185185
        k(   25) = (   0.1666667   0.4810793   0.0000000), wk =   0.0185185
        k(   26) = (   0.1666667   0.4810793   0.1252938), wk =   0.0185185
        k(   27) = (   0.1666667   0.4810793   0.2505875), wk =   0.0185185
        k(   28) = (   0.1666667   0.4810793  -0.3758813), wk =   0.0185185
        k(   29) = (   0.3333333   0.1924317   0.0000000), wk =   0.0185185
        k(   30) = (   0.3333333   0.1924317   0.1252938), wk =   0.0185185
        k(   31) = (   0.3333333   0.1924317   0.2505875), wk =   0.0185185
        k(   32) = (   0.3333333   0.1924317  -0.3758813), wk =   0.0185185
        k(   33) = (   0.3333333   0.3848634   0.0000000), wk =   0.0185185
        k(   34) = (   0.3333333   0.3848634   0.1252938), wk =   0.0185185
        k(   35) = (   0.3333333   0.3848634   0.2505875), wk =   0.0185185
        k(   36) = (   0.3333333   0.3848634  -0.3758813), wk =   0.0185185
        k(   37) = (   0.3333333   0.5772951   0.0000000), wk =   0.0092593
        k(   38) = (   0.3333333   0.5772951   0.1252938), wk =   0.0185185
        k(   39) = (   0.3333333   0.5772951   0.2505875), wk =   0.0185185
        k(   40) = (   0.3333333   0.5772951  -0.3758813), wk =   0.0092593
        k(   41) = (   0.3333333   0.0000000   0.0000000), wk =   0.0092593
        k(   42) = (   0.3333333   0.0000000   0.1252938), wk =   0.0185185
        k(   43) = (   0.3333333   0.0000000   0.2505875), wk =   0.0185185
        k(   44) = (   0.3333333   0.0000000  -0.3758813), wk =   0.0092593
        k(   45) = (  -0.5000000  -0.2886476   0.0000000), wk =   0.0092593
        k(   46) = (  -0.5000000  -0.2886476   0.1252938), wk =   0.0185185
        k(   47) = (  -0.5000000  -0.2886476   0.2505875), wk =   0.0185185
        k(   48) = (  -0.5000000  -0.2886476  -0.3758813), wk =   0.0092593
        k(   49) = (  -0.5000000  -0.0962159   0.0000000), wk =   0.0185185
        k(   50) = (  -0.5000000  -0.0962159   0.1252938), wk =   0.0185185
        k(   51) = (  -0.5000000  -0.0962159   0.2505875), wk =   0.0185185
        k(   52) = (  -0.5000000  -0.0962159  -0.3758813), wk =   0.0185185
        k(   53) = (   0.0000000   0.1924317  -0.1252938), wk =   0.0092593
        k(   54) = (   0.0000000   0.1924317  -0.2505875), wk =   0.0092593
        k(   55) = (   0.0000000   0.3848634  -0.1252938), wk =   0.0092593
        k(   56) = (   0.0000000   0.3848634  -0.2505875), wk =   0.0092593
        k(   57) = (  -0.1666667   0.0962159  -0.1252938), wk =   0.0185185
        k(   58) = (  -0.1666667   0.0962159  -0.2505875), wk =   0.0185185
        k(   59) = (  -0.1666667   0.2886476  -0.1252938), wk =   0.0185185
        k(   60) = (  -0.1666667   0.2886476  -0.2505875), wk =   0.0185185
        k(   61) = (  -0.1666667   0.4810793  -0.1252938), wk =   0.0185185
        k(   62) = (  -0.1666667   0.4810793  -0.2505875), wk =   0.0185185
        k(   63) = (  -0.3333333   0.1924317  -0.1252938), wk =   0.0185185
        k(   64) = (  -0.3333333   0.1924317  -0.2505875), wk =   0.0185185
        k(   65) = (  -0.3333333   0.3848634  -0.1252938), wk =   0.0185185
        k(   66) = (  -0.3333333   0.3848634  -0.2505875), wk =   0.0185185
        k(   67) = (   0.5000000  -0.0962159  -0.1252938), wk =   0.0185185
        k(   68) = (   0.5000000  -0.0962159  -0.2505875), wk =   0.0185185

                       cryst. coord.
        k(    1) = (   0.0000000   0.0000000   0.0000000), wk =   0.0046296
        k(    2) = (   0.0000000   0.0000000   0.1666667), wk =   0.0092593
        k(    3) = (   0.0000000   0.0000000   0.3333333), wk =   0.0092593
        k(    4) = (   0.0000000   0.0000000  -0.5000000), wk =   0.0046296
        k(    5) = (   0.0000000   0.1666667   0.0000000), wk =   0.0092593
        k(    6) = (   0.0000000   0.1666667   0.1666667), wk =   0.0092593
        k(    7) = (   0.0000000   0.1666667   0.3333333), wk =   0.0092593
        k(    8) = (   0.0000000   0.1666667  -0.5000000), wk =   0.0092593
        k(    9) = (   0.0000000   0.3333333   0.0000000), wk =   0.0092593
        k(   10) = (   0.0000000   0.3333333   0.1666667), wk =   0.0092593
        k(   11) = (   0.0000000   0.3333333   0.3333333), wk =   0.0092593
        k(   12) = (   0.0000000   0.3333333  -0.5000000), wk =   0.0092593
        k(   13) = (   0.0000000  -0.5000000   0.0000000), wk =   0.0046296
        k(   14) = (   0.0000000  -0.5000000   0.1666667), wk =   0.0092593
        k(   15) = (   0.0000000  -0.5000000   0.3333333), wk =   0.0092593
        k(   16) = (   0.0000000  -0.5000000  -0.5000000), wk =   0.0046296
        k(   17) = (   0.1666667   0.0000000   0.0000000), wk =   0.0185185
        k(   18) = (   0.1666667   0.0000000   0.1666667), wk =   0.0185185
        k(   19) = (   0.1666667   0.0000000   0.3333333), wk =   0.0185185
        k(   20) = (   0.1666667   0.0000000  -0.5000000), wk =   0.0185185
        k(   21) = (   0.1666667   0.1666667   0.0000000), wk =   0.0185185
        k(   22) = (   0.1666667   0.1666667   0.1666667), wk =   0.0185185
        k(   23) = (   0.1666667   0.1666667   0.3333333), wk =   0.0185185
        k(   24) = (   0.1666667   0.1666667  -0.5000000), wk =   0.0185185
        k(   25) = (   0.1666667   0.3333333   0.0000000), wk =   0.0185185
        k(   26) = (   0.1666667   0.3333333   0.1666667), wk =   0.0185185
        k(   27) = (   0.1666667   0.3333333   0.3333333), wk =   0.0185185
        k(   28) = (   0.1666667   0.3333333  -0.5000000), wk =   0.0185185
        k(   29) = (   0.3333333   0.0000000   0.0000000), wk =   0.0185185
        k(   30) = (   0.3333333   0.0000000   0.1666667), wk =   0.0185185
        k(   31) = (   0.3333333   0.0000000   0.3333333), wk =   0.0185185
        k(   32) = (   0.3333333   0.0000000  -0.5000000), wk =   0.0185185
        k(   33) = (   0.3333333   0.1666667   0.0000000), wk =   0.0185185
        k(   34) = (   0.3333333   0.1666667   0.1666667), wk =   0.0185185
        k(   35) = (   0.3333333   0.1666667   0.3333333), wk =   0.0185185
        k(   36) = (   0.3333333   0.1666667  -0.5000000), wk =   0.0185185
        k(   37) = (   0.3333333   0.3333333   0.0000000), wk =   0.0092593
        k(   38) = (   0.3333333   0.3333333   0.1666667), wk =   0.0185185
        k(   39) = (   0.3333333   0.3333333   0.3333333), wk =   0.0185185
        k(   40) = (   0.3333333   0.3333333  -0.5000000), wk =   0.0092593
        k(   41) = (   0.3333333  -0.1666667   0.0000000), wk =   0.0092593
        k(   42) = (   0.3333333  -0.1666667   0.1666667), wk =   0.0185185
        k(   43) = (   0.3333333  -0.1666667   0.3333333), wk =   0.0185185
        k(   44) = (   0.3333333  -0.1666667  -0.5000000), wk =   0.0092593
        k(   45) = (  -0.5000000   0.0000000   0.0000000), wk =   0.0092593
        k(   46) = (  -0.5000000   0.0000000   0.1666667), wk =   0.0185185
        k(   47) = (  -0.5000000   0.0000000   0.3333333), wk =   0.0185185
        k(   48) = (  -0.5000000   0.0000000  -0.5000000), wk =   0.0092593
        k(   49) = (  -0.5000000   0.1666667   0.0000000), wk =   0.0185185
        k(   50) = (  -0.5000000   0.1666667   0.1666667), wk =   0.0185185
        k(   51) = (  -0.5000000   0.1666667   0.3333333), wk =   0.0185185
        k(   52) = (  -0.5000000   0.1666667  -0.5000000), wk =   0.0185185
        k(   53) = (   0.0000000   0.1666667  -0.1666667), wk =   0.0092593
        k(   54) = (   0.0000000   0.1666667  -0.3333333), wk =   0.0092593
        k(   55) = (   0.0000000   0.3333333  -0.1666667), wk =   0.0092593
        k(   56) = (   0.0000000   0.3333333  -0.3333333), wk =   0.0092593
        k(   57) = (  -0.1666667   0.1666667  -0.1666667), wk =   0.0185185
        k(   58) = (  -0.1666667   0.1666667  -0.3333333), wk =   0.0185185
        k(   59) = (  -0.1666667   0.3333333  -0.1666667), wk =   0.0185185
        k(   60) = (  -0.1666667   0.3333333  -0.3333333), wk =   0.0185185
        k(   61) = (  -0.1666667   0.5000000  -0.1666667), wk =   0.0185185
        k(   62) = (  -0.1666667   0.5000000  -0.3333333), wk =   0.0185185
        k(   63) = (  -0.3333333   0.3333333  -0.1666667), wk =   0.0185185
        k(   64) = (  -0.3333333   0.3333333  -0.3333333), wk =   0.0185185
        k(   65) = (  -0.3333333   0.5000000  -0.1666667), wk =   0.0185185
        k(   66) = (  -0.3333333   0.5000000  -0.3333333), wk =   0.0185185
        k(   67) = (   0.5000000  -0.3333333  -0.1666667), wk =   0.0185185
        k(   68) = (   0.5000000  -0.3333333  -0.3333333), wk =   0.0185185

     Dense  grid:    60431 G-vectors     FFT dimensions: (  48,  48,  72)

     Smooth grid:    32821 G-vectors     FFT dimensions: (  40,  40,  54)

     Dynamical RAM for                 wfc:       1.63 MB

     Dynamical RAM for     wfc (w. buffer):     112.51 MB

     Dynamical RAM for           str. fact:       0.46 MB

     Dynamical RAM for           local pot:       0.00 MB

     Dynamical RAM for          nlocal pot:       3.20 MB

     Dynamical RAM for                qrad:       3.64 MB

     Dynamical RAM for          rho,v,vnew:      13.13 MB

     Dynamical RAM for               rhoin:       4.38 MB

     Dynamical RAM for            rho*nmix:      29.51 MB

     Dynamical RAM for           G-vectors:       1.85 MB

     Dynamical RAM for          h,s,v(r/c):       0.12 MB

     Dynamical RAM for          <psi|beta>:       0.08 MB

     Dynamical RAM for                 psi:       3.26 MB

     Dynamical RAM for                hpsi:       3.26 MB

     Dynamical RAM for                spsi:       3.26 MB

     Dynamical RAM for      wfcinit/wfcrot:       2.46 MB

     Dynamical RAM for           addusdens:     282.63 MB

     Dynamical RAM for          addusforce:     284.75 MB

     Dynamical RAM for         addusstress:     289.55 MB

     Estimated static dynamical RAM per process >     145.15 MB

     Estimated max dynamical RAM per process >     464.20 MB

     Estimated total dynamical RAM >     928.41 MB

     Initial potential from superposition of free atoms

     starting charge      17.9993, renormalised to      18.0000
     Starting wfcs are   24 randomized atomic wfcs +    2 random wfcs

     total cpu time spent up to now is        3.9 secs

     per-process dynamical memory:   164.6 Mb

     Self-consistent Calculation

     iteration #  1     ecut=    50.00 Ry     beta= 0.40
     Davidson diagonalization with overlap

---- Real-time Memory Report at c_bands before calling an iterative solver
           353 MiB given to the printing process from OS
           163 MiB allocation reported by mallinfo(arena+hblkhd)
          4034 MiB available memory on the node where the printing process lives
------------------
     c_bands:  1 eigenvalues not converged
     c_bands:  2 eigenvalues not converged
     c_bands:  1 eigenvalues not converged
     c_bands:  2 eigenvalues not converged
     c_bands:  1 eigenvalues not converged
     c_bands:  2 eigenvalues not converged
     c_bands:  2 eigenvalues not converged
     c_bands:  2 eigenvalues not converged
     c_bands:  2 eigenvalues not converged
     c_bands:  2 eigenvalues not converged
     c_bands:  2 eigenvalues not converged
     c_bands:  2 eigenvalues not converged
     c_bands:  2 eigenvalues not converged
     c_bands:  2 eigenvalues not converged
     c_bands:  2 eigenvalues not converged
     c_bands:  2 eigenvalues not converged
     c_bands:  1 eigenvalues not converged
     c_bands:  2 eigenvalues not converged
     c_bands:  2 eigenvalues not converged
     c_bands:  2 eigenvalues not converged
     c_bands:  2 eigenvalues not converged
     c_bands:  2 eigenvalues not converged
     c_bands:  2 eigenvalues not converged
     c_bands:  2 eigenvalues not converged
     c_bands:  2 eigenvalues not converged
     c_bands:  2 eigenvalues not converged
     c_bands:  2 eigenvalues not converged
     c_bands:  2 eigenvalues not converged
     c_bands:  1 eigenvalues not converged
     ethr =  1.00E-05,  avg # of iterations = 18.6

     total cpu time spent up to now is       35.7 secs

     total energy              =     -85.64362254 Ry
     estimated scf accuracy    <       0.01526253 Ry

     iteration #  2     ecut=    50.00 Ry     beta= 0.40
     Davidson diagonalization with overlap

---- Real-time Memory Report at c_bands before calling an iterative solver
           491 MiB given to the printing process from OS
           183 MiB allocation reported by mallinfo(arena+hblkhd)
          3982 MiB available memory on the node where the printing process lives
------------------
     ethr =  8.48E-05,  avg # of iterations =  1.0

     total cpu time spent up to now is       45.0 secs

     total energy              =     -85.64342137 Ry
     estimated scf accuracy    <       0.00449393 Ry

     iteration #  3     ecut=    50.00 Ry     beta= 0.40
     Davidson diagonalization with overlap

---- Real-time Memory Report at c_bands before calling an iterative solver
           493 MiB given to the printing process from OS
           185 MiB allocation reported by mallinfo(arena+hblkhd)
          3978 MiB available memory on the node where the printing process lives
------------------
     ethr =  2.50E-05,  avg # of iterations =  1.0

     total cpu time spent up to now is       54.5 secs

     total energy              =     -85.64366299 Ry
     estimated scf accuracy    <       0.00018554 Ry

     iteration #  4     ecut=    50.00 Ry     beta= 0.40
     Davidson diagonalization with overlap

---- Real-time Memory Report at c_bands before calling an iterative solver
           495 MiB given to the printing process from OS
           187 MiB allocation reported by mallinfo(arena+hblkhd)
          3974 MiB available memory on the node where the printing process lives
------------------
     c_bands:  1 eigenvalues not converged
     ethr =  1.03E-06,  avg # of iterations =  5.3

     total cpu time spent up to now is       67.6 secs

     total energy              =     -85.64372806 Ry
     estimated scf accuracy    <       0.00000664 Ry

     iteration #  5     ecut=    50.00 Ry     beta= 0.40
     Davidson diagonalization with overlap

---- Real-time Memory Report at c_bands before calling an iterative solver
           497 MiB given to the printing process from OS
           189 MiB allocation reported by mallinfo(arena+hblkhd)
          3970 MiB available memory on the node where the printing process lives
------------------
     ethr =  3.69E-08,  avg # of iterations =  4.0

     total cpu time spent up to now is       80.6 secs

     total energy              =     -85.64373194 Ry
     estimated scf accuracy    <       0.00000205 Ry

     iteration #  6     ecut=    50.00 Ry     beta= 0.40
     Davidson diagonalization with overlap

---- Real-time Memory Report at c_bands before calling an iterative solver
           499 MiB given to the printing process from OS
           191 MiB allocation reported by mallinfo(arena+hblkhd)
          3966 MiB available memory on the node where the printing process lives
------------------
     ethr =  1.14E-08,  avg # of iterations =  2.0

     total cpu time spent up to now is       91.0 secs

     total energy              =     -85.64373221 Ry
     estimated scf accuracy    <       0.00000013 Ry

     iteration #  7     ecut=    50.00 Ry     beta= 0.40
     Davidson diagonalization with overlap

---- Real-time Memory Report at c_bands before calling an iterative solver
           501 MiB given to the printing process from OS
           193 MiB allocation reported by mallinfo(arena+hblkhd)
          3962 MiB available memory on the node where the printing process lives
------------------
     ethr =  6.99E-10,  avg # of iterations =  2.6

     total cpu time spent up to now is      101.8 secs

     total energy              =     -85.64373224 Ry
     estimated scf accuracy    <       0.00000002 Ry

     iteration #  8     ecut=    50.00 Ry     beta= 0.40
     Davidson diagonalization with overlap

---- Real-time Memory Report at c_bands before calling an iterative solver
           503 MiB given to the printing process from OS
           195 MiB allocation reported by mallinfo(arena+hblkhd)
          3958 MiB available memory on the node where the printing process lives
------------------
     ethr =  1.04E-10,  avg # of iterations =  3.1

     total cpu time spent up to now is      113.4 secs

     End of self-consistent calculation

          k = 0.0000 0.0000 0.0000 (  4117 PWs)   bands (ev):

    -7.6616  -7.6616  -4.3302  -4.3302  -4.3288  -4.3288   2.7397   2.7397
     2.9394   2.9394   3.3731   3.3731   4.3270   4.3270   4.3744   4.3744
     5.2372   5.2372   6.6534   6.6534   7.2711   7.2711   7.8027   7.8027
    10.9666  10.9681

     occupation numbers 
     1.0000   1.0000   1.0000   1.0000   1.0000   1.0000   1.0000   1.0000
     1.0000   1.0000   1.0000   1.0000   1.0000   1.0000   1.0000   1.0000
     1.0000   1.0000   0.0000   0.0000   0.0000   0.0000   0.0000   0.0000
     0.0000   0.0000

          k = 0.0000 0.0000 0.1253 (  4141 PWs)   bands (ev):

    -7.5612  -7.5600  -5.2687  -5.2658  -3.3624  -3.3610   2.5212   2.5224
     2.9150   3.0929   3.1806   3.6281   4.2869   4.3883   4.4645   4.5239
     5.1526   5.2594   6.5325   6.5591   7.0403   7.1261   7.5211   7.5370
    10.6397  10.6775

     occupation numbers 
     1.0000   1.0000   1.0000   1.0000   1.0000   1.0000   1.0000   1.0000
     1.0000   1.0000   1.0000   1.0000   1.0000   1.0000   1.0000   1.0000
     1.0000   1.0000   0.0000   0.0000   0.0000   0.0000   0.0000   0.0000
     0.0000   0.0000

          k = 0.0000 0.0000 0.2506 (  4117 PWs)   bands (ev):

    -7.2608  -7.2586  -6.0955  -6.0921  -2.5345  -2.5310   2.0466   2.0886
     3.0668   3.1664   3.2347   3.6503   4.4056   4.5496   4.5615   4.8018
     4.9946   5.2120   6.4068   6.4222   6.6765   6.8506   6.9810   7.0566
    10.1999  10.2182

     occupation numbers 
     1.0000   1.0000   1.0000   1.0000   1.0000   1.0000   1.0000   1.0000
     1.0000   1.0000   1.0000   1.0000   1.0000   1.0000   1.0000   1.0000
     1.0000   1.0000   0.0033   0.0020   0.0000   0.0000   0.0000   0.0000
     0.0000   0.0000

          k = 0.0000 0.0000-0.3759 (  4142 PWs)   bands (ev):

    -6.7677  -6.7677  -6.7646  -6.7646  -2.1727  -2.1727   1.8225   1.8225
     3.1645   3.1645   3.4524   3.4524   4.5466   4.5466   4.7797   4.7797
     5.0602   5.0602   6.4467   6.4467   6.5502   6.5502   6.7769   6.7769
    10.0193  10.0193

     occupation numbers 
     1.0000   1.0000   1.0000   1.0000   1.0000   1.0000   1.0000   1.0000
     1.0000   1.0000   1.0000   1.0000   1.0000   1.0000   1.0000   1.0000
     1.0000   1.0000   0.0009   0.0009   0.0000   0.0000   0.0000   0.0000
     0.0000   0.0000

          k = 0.0000 0.1924 0.0000 (  4127 PWs)   bands (ev):

    -7.4816  -7.4813  -4.3960  -4.3903  -4.2783  -4.2741   1.7452   1.8413
     2.3113   2.4606   2.8060   3.0418   4.5506   4.7215   4.9302   5.0188
     5.2040   5.3179   6.7534   6.8348   6.9897   7.0755   7.5553   7.6558
    10.3992  10.4394

     occupation numbers 
     1.0000   1.0000   1.0000   1.0000   1.0000   1.0000   1.0000   1.0000
     1.0000   1.0000   1.0000   1.0000   1.0000   1.0000   1.0000   1.0000
     1.0000   1.0000   0.0000   0.0000   0.0000   0.0000   0.0000   0.0000
     0.0000   0.0000

          k = 0.0000 0.1924 0.1253 (  4136 PWs)   bands (ev):

    -7.3825  -7.3811  -5.2097  -5.2065  -3.4626  -3.4598   1.8407   1.9161
     2.0082   2.1396   2.9034   3.0911   4.6558   4.7874   4.9665   5.1623
     5.3546   5.4489   6.6023   6.6297   6.7815   6.9200   7.4220   7.4827
     9.9951  10.0038

     occupation numbers 
     1.0000   1.0000   1.0000   1.0000   1.0000   1.0000   1.0000   1.0000
     1.0000   1.0000   1.0000   1.0000   1.0000   1.0000   1.0000   1.0000
     1.0000   1.0000   0.0000   0.0000   0.0000   0.0000   0.0000   0.0000
     0.0000   0.0000

          k = 0.0000 0.1924 0.2506 (  4130 PWs)   bands (ev):

    -7.0895  -7.0868  -5.9816  -5.9777  -2.7999  -2.7955   1.6975   1.7900
     2.1833   2.3573   3.0059   3.1867   4.4546   4.5278   4.6671   4.7714
     4.9379   5.0388   6.6524   6.7622   6.9816   7.1350   7.6928   7.7061
    10.0218  10.0483

     occupation numbers 
     1.0000   1.0000   1.0000   1.0000   1.0000   1.0000   1.0000   1.0000
     1.0000   1.0000   1.0000   1.0000   1.0000   1.0000   1.0000   1.0000
     1.0000   1.0000   0.0000   0.0000   0.0000   0.0000   0.0000   0.0000
     0.0000   0.0000

          k = 0.0000 0.1924-0.3759 (  4110 PWs)   bands (ev):

    -6.6344  -6.6326  -6.5956  -6.5941  -2.5574  -2.5567   1.6648   1.7456
     2.6418   2.8845   2.9592   3.1311   3.9258   4.1566   4.2595   4.4126
     4.6177   4.8153   6.7845   6.9275   7.3554   7.4905   7.8947   7.9007
    10.4417  10.4641

     occupation numbers 
     1.0000   1.0000   1.0000   1.0000   1.0000   1.0000   1.0000   1.0000
     1.0000   1.0000   1.0000   1.0000   1.0000   1.0000   1.0000   1.0000
     1.0000   1.0000   0.0000   0.0000   0.0000   0.0000   0.0000   0.0000
     0.0000   0.0000

          k = 0.0000 0.3849 0.0000 (  4110 PWs)   bands (ev):

    -7.0150  -7.0143  -4.7046  -4.6992  -4.1589  -4.1549   1.0442   1.1004
     1.6244   1.7865   2.3280   2.5425   3.5185   3.5935   4.8355   4.9851
     5.0700   5.2167   6.8676   6.9736   7.1015   7.1400   8.7815   8.7983
     9.3833   9.4125

     occupation numbers 
     1.0000   1.0000   1.0000   1.0000   1.0000   1.0000   1.0000   1.0000
     1.0000   1.0000   1.0000   1.0000   1.0000   1.0000   1.0000   1.0000
     1.0000   1.0000   0.0000   0.0000   0.0000   0.0000   0.0000   0.0000
     0.0000   0.0000

          k = 0.0000 0.3849 0.1253 (  4102 PWs)   bands (ev):

    -6.9185  -6.9159  -5.1819  -5.1775  -3.7235  -3.7171   0.8908   0.9189
     1.3791   1.4778   2.4466   2.5846   4.2349   4.4899   4.7122   4.9904
     5.0048   5.2044   6.7998   6.8608   7.2885   7.3917   7.9003   7.9275
     9.3153   9.3765

     occupation numbers 
     1.0000   1.0000   1.0000   1.0000   1.0000   1.0000   1.0000   1.0000
     1.0000   1.0000   1.0000   1.0000   1.0000   1.0000   1.0000   1.0000
     1.0000   1.0000   0.0000   0.0000   0.0000   0.0000   0.0000   0.0000
     0.0000   0.0000

          k = 0.0000 0.3849 0.2506 (  4113 PWs)   bands (ev):

    -6.6501  -6.6453  -5.7518  -5.7455  -3.4189  -3.4126   0.7253   0.7696
     1.6190   1.7368   2.5926   2.7071   3.9626   4.1240   4.3476   4.4488
     5.7725   5.8255   6.6660   6.7354   7.3121   7.4460   7.8018   8.1412
     9.7945   9.9319

     occupation numbers 
     1.0000   1.0000   1.0000   1.0000   1.0000   1.0000   1.0000   1.0000
     1.0000   1.0000   1.0000   1.0000   1.0000   1.0000   1.0000   1.0000
     0.9999   0.9996   0.0000   0.0000   0.0000   0.0000   0.0000   0.0000
     0.0000   0.0000

          k = 0.0000 0.3849-0.3759 (  4110 PWs)   bands (ev):

    -6.3346  -6.3327  -6.1489  -6.1469  -3.3866  -3.3850   0.8160   0.8575
     2.1264   2.2509   2.4889   2.6043   3.7107   3.7763   4.0028   4.0821
     4.9604   5.0577   7.2254   7.4264   7.8941   8.0013   8.2878   8.5015
    10.4630  10.6131

     occupation numbers 
     1.0000   1.0000   1.0000   1.0000   1.0000   1.0000   1.0000   1.0000
     1.0000   1.0000   1.0000   1.0000   1.0000   1.0000   1.0000   1.0000
     1.0000   1.0000   0.0000   0.0000   0.0000   0.0000   0.0000   0.0000
     0.0000   0.0000

          k = 0.0000-0.5773 0.0000 (  4094 PWs)   bands (ev):

    -6.6645  -6.6645  -5.0182  -5.0182  -4.0904  -4.0904   1.0207   1.0207
     1.5176   1.5176   2.3525   2.3525   2.5609   2.5609   4.8249   4.8249
     5.1109   5.1109   6.9203   6.9203   7.0383   7.0383   9.0067   9.0067
     9.7308   9.7308

     occupation numbers 
     1.0000   1.0000   1.0000   1.0000   1.0000   1.0000   1.0000   1.0000
     1.0000   1.0000   1.0000   1.0000   1.0000   1.0000   1.0000   1.0000
     1.0000   1.0000   0.0000   0.0000   0.0000   0.0000   0.0000   0.0000
     0.0000   0.0000

          k = 0.0000-0.5773 0.1253 (  4094 PWs)   bands (ev):

    -6.5900  -6.5862  -5.1800  -5.1757  -4.0388  -4.0307   0.9787   1.0183
     1.1851   1.2951   2.2833   2.4421   3.1905   3.3697   4.4604   4.6287
     4.7798   4.8624   6.9132   6.9552   7.4983   7.7194   9.1756   9.1964
     9.3606   9.4732

     occupation numbers 
     1.0000   1.0000   1.0000   1.0000   1.0000   1.0000   1.0000   1.0000
     1.0000   1.0000   1.0000   1.0000   1.0000   1.0000   1.0000   1.0000
     1.0000   1.0000   0.0000   0.0000   0.0000   0.0000   0.0000   0.0000
     0.0000   0.0000

          k = 0.0000-0.5773 0.2506 (  4094 PWs)   bands (ev):

    -6.3778  -6.3712  -5.5366  -5.5289  -3.9446  -3.9376   0.4627   0.4930
     1.6289   1.7374   2.3958   2.5102   3.6171   3.8933   4.0768   4.2689
     4.7638   4.9574   7.2682   7.3595   7.8814   7.9574   8.2720   8.6037
    10.0874  10.3051

     occupation numbers 
     1.0000   1.0000   1.0000   1.0000   1.0000   1.0000   1.0000   1.0000
     1.0000   1.0000   1.0000   1.0000   1.0000   1.0000   1.0000   1.0000
     1.0000   1.0000   0.0000   0.0000   0.0000   0.0000   0.0000   0.0000
     0.0000   0.0000

          k = 0.0000-0.5773-0.3759 (  4096 PWs)   bands (ev):

    -6.1608  -6.1608  -5.8089  -5.8089  -3.8986  -3.8986   0.2772   0.2772
     2.1563   2.1563   2.2860   2.2860   3.5728   3.5728   3.9339   3.9339
     5.7919   5.7919   6.7526   6.7526   7.8032   7.8032   8.6585   8.6585
    10.5620  10.5622

     occupation numbers 
     1.0000   1.0000   1.0000   1.0000   1.0000   1.0000   1.0000   1.0000
     1.0000   1.0000   1.0000   1.0000   1.0000   1.0000   1.0000   1.0000
     0.9999   0.9999   0.0000   0.0000   0.0000   0.0000   0.0000   0.0000
     0.0000   0.0000

          k = 0.1667 0.0962 0.0000 (  4127 PWs)   bands (ev):

    -7.4816  -7.4812  -4.3957  -4.3900  -4.2785  -4.2744   1.7453   1.8414
     2.3111   2.4605   2.8057   3.0415   4.5506   4.7214   4.9304   5.0190
     5.2040   5.3182   6.7532   6.8347   6.9896   7.0753   7.5552   7.6557
    10.3994  10.4395

     occupation numbers 
     1.0000   1.0000   1.0000   1.0000   1.0000   1.0000   1.0000   1.0000
     1.0000   1.0000   1.0000   1.0000   1.0000   1.0000   1.0000   1.0000
     1.0000   1.0000   0.0000   0.0000   0.0000   0.0000   0.0000   0.0000
     0.0000   0.0000

          k = 0.1667 0.0962 0.1253 (  4136 PWs)   bands (ev):

    -7.3851  -7.3837  -5.1818  -5.1786  -3.5199  -3.5171   1.8111   1.8989
     2.5317   2.7260   2.8083   3.1677   4.2554   4.3072   4.3993   4.5774
     4.8242   5.0126   6.9978   7.0955   7.3946   7.5192   7.7985   7.8958
    10.6886  10.7296

     occupation numbers 
     1.0000   1.0000   1.0000   1.0000   1.0000   1.0000   1.0000   1.0000
     1.0000   1.0000   1.0000   1.0000   1.0000   1.0000   1.0000   1.0000
     1.0000   1.0000   0.0000   0.0000   0.0000   0.0000   0.0000   0.0000
     0.0000   0.0000

          k = 0.1667 0.0962 0.2506 (  4130 PWs)   bands (ev):

    -7.0953  -7.0927  -5.9643  -5.9604  -2.8509  -2.8465   1.8226   1.8914
     2.6536   2.8157   3.0689   3.3138   3.7399   3.9627   4.1732   4.2613
     4.6448   4.7964   7.0212   7.0634   7.6556   7.7486   7.8130   7.8794
    10.6302  10.6491

     occupation numbers 
     1.0000   1.0000   1.0000   1.0000   1.0000   1.0000   1.0000   1.0000
     1.0000   1.0000   1.0000   1.0000   1.0000   1.0000   1.0000   1.0000
     1.0000   1.0000   0.0000   0.0000   0.0000   0.0000   0.0000   0.0000
     0.0000   0.0000

          k = 0.1667 0.0962-0.3759 (  4110 PWs)   bands (ev):

    -6.6342  -6.6325  -6.5957  -6.5942  -2.5574  -2.5567   1.6649   1.7457
     2.6419   2.8848   2.9590   3.1308   3.9257   4.1562   4.2594   4.4124
     4.6174   4.8150   6.7843   6.9273   7.3551   7.4903   7.8955   7.9015
    10.4417  10.4636

     occupation numbers 
     1.0000   1.0000   1.0000   1.0000   1.0000   1.0000   1.0000   1.0000
     1.0000   1.0000   1.0000   1.0000   1.0000   1.0000   1.0000   1.0000
     1.0000   1.0000   0.0000   0.0000   0.0000   0.0000   0.0000   0.0000
     0.0000   0.0000

          k = 0.1667 0.2886 0.0000 (  4119 PWs)   bands (ev):

    -7.1538  -7.1532  -4.5290  -4.5187  -4.2659  -4.2573   1.2356   1.3503
     1.5023   1.6114   2.8645   3.0280   4.0357   4.1914   4.3226   4.3922
     4.7923   4.8406   7.5064   7.5438   7.5955   7.6305   7.9549   7.9724
    10.2662  10.2725

     occupation numbers 
     1.0000   1.0000   1.0000   1.0000   1.0000   1.0000   1.0000   1.0000
     1.0000   1.0000   1.0000   1.0000   1.0000   1.0000   1.0000   1.0000
     1.0000   1.0000   0.0000   0.0000   0.0000   0.0000   0.0000   0.0000
     0.0000   0.0000

          k = 0.1667 0.2886 0.1253 (  4109 PWs)   bands (ev):

    -7.0624  -7.0602  -5.1046  -5.1006  -3.7553  -3.7500   1.2440   1.3083
     1.6669   1.7254   2.7725   2.9089   3.6014   3.6956   4.3712   4.4888
     5.4184   5.4846   6.8727   6.9423   7.6451   7.6876   8.2598   8.2920
    10.2405  10.2713

     occupation numbers 
     1.0000   1.0000   1.0000   1.0000   1.0000   1.0000   1.0000   1.0000
     1.0000   1.0000   1.0000   1.0000   1.0000   1.0000   1.0000   1.0000
     1.0000   1.0000   0.0000   0.0000   0.0000   0.0000   0.0000   0.0000
     0.0000   0.0000

          k = 0.1667 0.2886 0.2506 (  4107 PWs)   bands (ev):

    -6.7915  -6.7877  -5.7713  -5.7662  -3.3128  -3.3069   1.2542   1.3474
     1.7605   1.8954   2.6091   2.7244   3.2971   3.4780   4.8271   4.9540
     5.1690   5.2873   6.8108   6.8646   7.6456   7.6569   8.4454   8.4996
    10.4250  10.4457

     occupation numbers 
     1.0000   1.0000   1.0000   1.0000   1.0000   1.0000   1.0000   1.0000
     1.0000   1.0000   1.0000   1.0000   1.0000   1.0000   1.0000   1.0000
     1.0000   1.0000   0.0000   0.0000   0.0000   0.0000   0.0000   0.0000
     0.0000   0.0000

          k = 0.1667 0.2886-0.3759 (  4128 PWs)   bands (ev):

    -6.3984  -6.3954  -6.3014  -6.2983  -3.1457  -3.1442   1.2318   1.3288
     2.0553   2.0680   2.1817   2.2840   3.8696   4.0303   4.4337   4.4673
     5.1383   5.2234   6.7258   6.8051   8.1061   8.1224   8.3125   8.3338
    10.6233  10.6635

     occupation numbers 
     1.0000   1.0000   1.0000   1.0000   1.0000   1.0000   1.0000   1.0000
     1.0000   1.0000   1.0000   1.0000   1.0000   1.0000   1.0000   1.0000
     1.0000   1.0000   0.0000   0.0000   0.0000   0.0000   0.0000   0.0000
     0.0000   0.0000

          k = 0.1667 0.4811 0.0000 (  4114 PWs)   bands (ev):

    -6.6907  -6.6899  -4.8355  -4.8294  -4.2821  -4.2766   1.0918   1.1642
     1.3647   1.4734   2.4392   2.6374   2.9381   3.0601   3.9701   4.0584
     4.2129   4.2534   7.7473   7.7841   8.1046   8.1181   9.2305   9.2404
     9.8679   9.8850

     occupation numbers 
     1.0000   1.0000   1.0000   1.0000   1.0000   1.0000   1.0000   1.0000
     1.0000   1.0000   1.0000   1.0000   1.0000   1.0000   1.0000   1.0000
     1.0000   1.0000   0.0000   0.0000   0.0000   0.0000   0.0000   0.0000
     0.0000   0.0000

          k = 0.1667 0.4811 0.1253 (  4105 PWs)   bands (ev):

    -6.6069  -6.6032  -5.1370  -5.1317  -4.0536  -4.0448   0.8248   0.8578
     1.3251   1.4269   2.3625   2.4937   3.1673   3.3350   4.0400   4.1722
     4.8635   4.9842   7.2999   7.3639   8.3311   8.3633   8.4825   8.5519
    10.0121  10.0670

     occupation numbers 
     1.0000   1.0000   1.0000   1.0000   1.0000   1.0000   1.0000   1.0000
     1.0000   1.0000   1.0000   1.0000   1.0000   1.0000   1.0000   1.0000
     1.0000   1.0000   0.0000   0.0000   0.0000   0.0000   0.0000   0.0000
     0.0000   0.0000

          k = 0.1667 0.4811 0.2506 (  4102 PWs)   bands (ev):

    -6.3732  -6.3663  -5.5785  -5.5703  -3.8551  -3.8474   0.5590   0.6017
     1.3042   1.3797   2.0972   2.1708   3.4156   3.5427   4.9748   5.1817
     5.5424   5.7974   6.6721   6.7341   7.4340   7.5044   8.5101   8.6213
    10.3326  10.4106

     occupation numbers 
     1.0000   1.0000   1.0000   1.0000   1.0000   1.0000   1.0000   1.0000
     1.0000   1.0000   1.0000   1.0000   1.0000   1.0000   1.0000   1.0000
     1.0000   0.9999   0.0000   0.0000   0.0000   0.0000   0.0000   0.0000
     0.0000   0.0000

          k = 0.1667 0.4811-0.3759 (  4100 PWs)   bands (ev):

    -6.1124  -6.1100  -5.8974  -5.8944  -3.8105  -3.8089   0.5455   0.5731
     1.4852   1.5144   1.6282   1.7107   4.2577   4.3606   4.7512   4.7911
     5.5631   5.6370   6.8722   6.9751   7.5528   7.6169   8.1856   8.2335
    10.8100  10.8451

     occupation numbers 
     1.0000   1.0000   1.0000   1.0000   1.0000   1.0000   1.0000   1.0000
     1.0000   1.0000   1.0000   1.0000   1.0000   1.0000   1.0000   1.0000
     1.0000   1.0000   0.0000   0.0000   0.0000   0.0000   0.0000   0.0000
     0.0000   0.0000

          k = 0.3333 0.1924 0.0000 (  4110 PWs)   bands (ev):

    -7.0148  -7.0142  -4.7043  -4.6989  -4.1592  -4.1552   1.0442   1.1004
     1.6243   1.7864   2.3275   2.5422   3.5187   3.5937   4.8352   4.9849
     5.0697   5.2164   6.8672   6.9733   7.1009   7.1394   8.7818   8.7987
     9.3832   9.4124

     occupation numbers 
     1.0000   1.0000   1.0000   1.0000   1.0000   1.0000   1.0000   1.0000
     1.0000   1.0000   1.0000   1.0000   1.0000   1.0000   1.0000   1.0000
     1.0000   1.0000   0.0000   0.0000   0.0000   0.0000   0.0000   0.0000
     0.0000   0.0000

          k = 0.3333 0.1924 0.1253 (  4102 PWs)   bands (ev):

    -6.9359  -6.9335  -5.0202  -5.0163  -3.9783  -3.9722   1.3190   1.4326
     1.8134   1.9335   2.5448   2.7816   2.8000   3.0295   4.3621   4.6144
     4.8045   4.9683   6.9919   7.0908   7.6879   7.9229   9.1855   9.1987
     9.9698  10.0833

     occupation numbers 
     1.0000   1.0000   1.0000   1.0000   1.0000   1.0000   1.0000   1.0000
     1.0000   1.0000   1.0000   1.0000   1.0000   1.0000   1.0000   1.0000
     1.0000   1.0000   0.0000   0.0000   0.0000   0.0000   0.0000   0.0000
     0.0000   0.0000

          k = 0.3333 0.1924 0.2506 (  4113 PWs)   bands (ev):

    -6.6881  -6.6840  -5.6397  -5.6344  -3.6071  -3.6009   1.1947   1.2689
     1.9567   2.1163   2.5562   2.7003   3.2997   3.6607   3.9126   4.0784
     4.4121   4.6352   7.4028   7.4564   8.2370   8.3956   8.8728   8.8873
    10.5981  10.7102

     occupation numbers 
     1.0000   1.0000   1.0000   1.0000   1.0000   1.0000   1.0000   1.0000
     1.0000   1.0000   1.0000   1.0000   1.0000   1.0000   1.0000   1.0000
     1.0000   1.0000   0.0000   0.0000   0.0000   0.0000   0.0000   0.0000
     0.0000   0.0000

          k = 0.3333 0.1924-0.3759 (  4110 PWs)   bands (ev):

    -6.3343  -6.3324  -6.1490  -6.1469  -3.3866  -3.3850   0.8160   0.8576
     2.1263   2.2508   2.4885   2.6038   3.7105   3.7760   4.0025   4.0818
     4.9602   5.0575   7.2253   7.4264   7.8943   8.0018   8.2876   8.5013
    10.4629  10.6130

     occupation numbers 
     1.0000   1.0000   1.0000   1.0000   1.0000   1.0000   1.0000   1.0000
     1.0000   1.0000   1.0000   1.0000   1.0000   1.0000   1.0000   1.0000
     1.0000   1.0000   0.0000   0.0000   0.0000   0.0000   0.0000   0.0000
     0.0000   0.0000

          k = 0.3333 0.3849 0.0000 (  4114 PWs)   bands (ev):

    -6.6906  -6.6898  -4.8353  -4.8291  -4.2824  -4.2770   1.0919   1.1644
     1.3645   1.4733   2.4390   2.6372   2.9382   3.0602   3.9699   4.0583
     4.2126   4.2531   7.7468   7.7836   8.1041   8.1176   9.2310   9.2410
     9.8676   9.8847

     occupation numbers 
     1.0000   1.0000   1.0000   1.0000   1.0000   1.0000   1.0000   1.0000
     1.0000   1.0000   1.0000   1.0000   1.0000   1.0000   1.0000   1.0000
     1.0000   1.0000   0.0000   0.0000   0.0000   0.0000   0.0000   0.0000
     0.0000   0.0000

          k = 0.3333 0.3849 0.1253 (  4105 PWs)   bands (ev):

    -6.6179  -6.6143  -5.0505  -5.0457  -4.1673  -4.1583   1.0170   1.0688
     1.4164   1.4898   2.3939   2.5575   2.8108   3.1844   3.6404   3.8335
     5.0918   5.1554   7.1526   7.2119   8.2231   8.2748   9.2842   9.3082
    10.1222  10.1780

     occupation numbers 
     1.0000   1.0000   1.0000   1.0000   1.0000   1.0000   1.0000   1.0000
     1.0000   1.0000   1.0000   1.0000   1.0000   1.0000   1.0000   1.0000
     1.0000   1.0000   0.0000   0.0000   0.0000   0.0000   0.0000   0.0000
     0.0000   0.0000

          k = 0.3333 0.3849 0.2506 (  4103 PWs)   bands (ev):

    -6.3967  -6.3905  -5.5113  -5.5040  -3.9375  -3.9298   0.8092   0.8825
     1.2040   1.2709   2.0519   2.1267   3.5276   3.7373   4.4379   4.5780
     5.3442   5.4752   6.9327   6.9635   8.0887   8.1554   8.5784   8.6207
    10.5934  10.6388

     occupation numbers 
     1.0000   1.0000   1.0000   1.0000   1.0000   1.0000   1.0000   1.0000
     1.0000   1.0000   1.0000   1.0000   1.0000   1.0000   1.0000   1.0000
     1.0000   1.0000   0.0000   0.0000   0.0000   0.0000   0.0000   0.0000
     0.0000   0.0000

          k = 0.3333 0.3849-0.3759 (  4100 PWs)   bands (ev):

    -6.1121  -6.1098  -5.8975  -5.8945  -3.8105  -3.8089   0.5455   0.5731
     1.4850   1.5143   1.6280   1.7105   4.2576   4.3605   4.7509   4.7907
     5.5630   5.6370   6.8723   6.9752   7.5531   7.6172   8.1852   8.2331
    10.8099  10.8451

     occupation numbers 
     1.0000   1.0000   1.0000   1.0000   1.0000   1.0000   1.0000   1.0000
     1.0000   1.0000   1.0000   1.0000   1.0000   1.0000   1.0000   1.0000
     1.0000   1.0000   0.0000   0.0000   0.0000   0.0000   0.0000   0.0000
     0.0000   0.0000

          k = 0.3333 0.5773 0.0000 (  4116 PWs)   bands (ev):

    -6.4959  -6.4959  -4.6587  -4.6556  -4.6556  -4.6440   1.2349   1.4221
     1.4222   1.4370   2.7634   2.7634   2.8601   3.0610   3.0611   3.0904
     3.4471   3.4471   8.7386   8.7797   8.9456   8.9457   9.1929   9.1930
    10.8660  10.8660

     occupation numbers 
     1.0000   1.0000   1.0000   1.0000   1.0000   1.0000   1.0000   1.0000
     1.0000   1.0000   1.0000   1.0000   1.0000   1.0000   1.0000   1.0000
     1.0000   1.0000   0.0000   0.0000   0.0000   0.0000   0.0000   0.0000
     0.0000   0.0000

          k = 0.3333 0.5773 0.1253 (  4125 PWs)   bands (ev):

    -6.4236  -6.4189  -5.0495  -5.0457  -4.3258  -4.3157   0.9375   0.9520
     1.3183   1.4844   2.1298   2.2380   2.8529   3.0372   3.8583   3.8999
     4.2408   4.4346   8.2089   8.3647   8.6728   8.7930   8.8029   8.8331
    11.0604  11.1088

     occupation numbers 
     1.0000   1.0000   1.0000   1.0000   1.0000   1.0000   1.0000   1.0000
     1.0000   1.0000   1.0000   1.0000   1.0000   1.0000   1.0000   1.0000
     1.0000   1.0000   0.0000   0.0000   0.0000   0.0000   0.0000   0.0000
     0.0000   0.0000

          k = 0.3333 0.5773 0.2506 (  4125 PWs)   bands (ev):

    -6.2097  -6.2012  -5.4749  -5.4658  -4.0884  -4.0796   0.7506   0.8048
     0.9172   0.9767   1.3966   1.5082   3.8968   4.0296   4.9461   5.0993
     5.2924   5.5836   7.0897   7.2037   7.9027   7.9941   8.1079   8.1376
    11.6983  11.7089

     occupation numbers 
     1.0000   1.0000   1.0000   1.0000   1.0000   1.0000   1.0000   1.0000
     1.0000   1.0000   1.0000   1.0000   1.0000   1.0000   1.0000   1.0000
     1.0000   1.0000   0.0000   0.0000   0.0000   0.0000   0.0000   0.0000
     0.0000   0.0000

          k = 0.3333 0.5773-0.3759 (  4116 PWs)   bands (ev):

    -5.8794  -5.8794  -5.8725  -5.8653  -3.9950  -3.9950   0.7397   0.7397
     0.8898   0.9431   1.0163   1.0163   4.8285   4.8285   5.8008   5.8009
     6.0498   6.1660   6.1661   6.1908   7.3161   7.3835   7.5462   7.5462
    11.8947  11.8948

     occupation numbers 
     1.0000   1.0000   1.0000   1.0000   1.0000   1.0000   1.0000   1.0000
     1.0000   1.0000   1.0000   1.0000   1.0000   1.0000   0.9998   0.9998
     0.8413   0.4175   0.4172   0.3207   0.0000   0.0000   0.0000   0.0000
     0.0000   0.0000

          k = 0.3333 0.0000 0.0000 (  4115 PWs)   bands (ev):

    -7.1537  -7.1531  -4.5288  -4.5186  -4.2660  -4.2574   1.2355   1.3502
     1.5022   1.6112   2.8644   3.0279   4.0357   4.1914   4.3227   4.3922
     4.7923   4.8406   7.5062   7.5436   7.5953   7.6302   7.9546   7.9721
    10.2660  10.2722

     occupation numbers 
     1.0000   1.0000   1.0000   1.0000   1.0000   1.0000   1.0000   1.0000
     1.0000   1.0000   1.0000   1.0000   1.0000   1.0000   1.0000   1.0000
     1.0000   1.0000   0.0000   0.0000   0.0000   0.0000   0.0000   0.0000
     0.0000   0.0000

          k = 0.3333 0.0000 0.1253 (  4107 PWs)   bands (ev):

    -7.0623  -7.0602  -5.1044  -5.1004  -3.7555  -3.7502   1.2439   1.3081
     1.6670   1.7255   2.7724   2.9089   3.6012   3.6954   4.3711   4.4887
     5.4185   5.4847   6.8726   6.9422   7.6445   7.6870   8.2596   8.2918
    10.2401  10.2709

     occupation numbers 
     1.0000   1.0000   1.0000   1.0000   1.0000   1.0000   1.0000   1.0000
     1.0000   1.0000   1.0000   1.0000   1.0000   1.0000   1.0000   1.0000
     1.0000   1.0000   0.0000   0.0000   0.0000   0.0000   0.0000   0.0000
     0.0000   0.0000

          k = 0.3333 0.0000 0.2506 (  4107 PWs)   bands (ev):

    -6.7914  -6.7876  -5.7711  -5.7660  -3.3129  -3.3070   1.2542   1.3473
     1.7607   1.8956   2.6090   2.7243   3.2969   3.4779   4.8268   4.9537
     5.1687   5.2870   6.8105   6.8642   7.6456   7.6570   8.4454   8.4995
    10.4247  10.4454

     occupation numbers 
     1.0000   1.0000   1.0000   1.0000   1.0000   1.0000   1.0000   1.0000
     1.0000   1.0000   1.0000   1.0000   1.0000   1.0000   1.0000   1.0000
     1.0000   1.0000   0.0000   0.0000   0.0000   0.0000   0.0000   0.0000
     0.0000   0.0000

          k = 0.3333 0.0000-0.3759 (  4128 PWs)   bands (ev):

    -6.3983  -6.3952  -6.3014  -6.2983  -3.1458  -3.1442   1.2317   1.3287
     2.0554   2.0679   2.1818   2.2843   3.8692   4.0300   4.4335   4.4671
     5.1379   5.2230   6.7253   6.8045   8.1063   8.1226   8.3129   8.3342
    10.6230  10.6633

     occupation numbers 
     1.0000   1.0000   1.0000   1.0000   1.0000   1.0000   1.0000   1.0000
     1.0000   1.0000   1.0000   1.0000   1.0000   1.0000   1.0000   1.0000
     1.0000   1.0000   0.0000   0.0000   0.0000   0.0000   0.0000   0.0000
     0.0000   0.0000

          k =-0.5000-0.2886 0.0000 (  4094 PWs)   bands (ev):

    -6.6642  -6.6642  -5.0179  -5.0179  -4.0908  -4.0908   1.0209   1.0209
     1.5174   1.5174   2.3523   2.3523   2.5608   2.5608   4.8246   4.8246
     5.1105   5.1105   6.9198   6.9198   7.0378   7.0378   9.0064   9.0064
     9.7313   9.7313

     occupation numbers 
     1.0000   1.0000   1.0000   1.0000   1.0000   1.0000   1.0000   1.0000
     1.0000   1.0000   1.0000   1.0000   1.0000   1.0000   1.0000   1.0000
     1.0000   1.0000   0.0000   0.0000   0.0000   0.0000   0.0000   0.0000
     0.0000   0.0000

          k =-0.5000-0.2886 0.1253 (  4094 PWs)   bands (ev):

    -6.5898  -6.5860  -5.1798  -5.1755  -4.0390  -4.0310   0.9786   1.0182
     1.1852   1.2953   2.2829   2.4417   3.1904   3.3696   4.4599   4.6283
     4.7794   4.8621   6.9128   6.9549   7.4977   7.7188   9.1760   9.1968
     9.3605   9.4730

     occupation numbers 
     1.0000   1.0000   1.0000   1.0000   1.0000   1.0000   1.0000   1.0000
     1.0000   1.0000   1.0000   1.0000   1.0000   1.0000   1.0000   1.0000
     1.0000   1.0000   0.0000   0.0000   0.0000   0.0000   0.0000   0.0000
     0.0000   0.0000

          k =-0.5000-0.2886 0.2506 (  4094 PWs)   bands (ev):

    -6.3775  -6.3709  -5.5365  -5.5287  -3.9447  -3.9376   0.4626   0.4930
     1.6288   1.7374   2.3953   2.5098   3.6168   3.8930   4.0764   4.2686
     4.7638   4.9573   7.2680   7.3595   7.8815   7.9575   8.2718   8.6033
    10.0873  10.3050

     occupation numbers 
     1.0000   1.0000   1.0000   1.0000   1.0000   1.0000   1.0000   1.0000
     1.0000   1.0000   1.0000   1.0000   1.0000   1.0000   1.0000   1.0000
     1.0000   1.0000   0.0000   0.0000   0.0000   0.0000   0.0000   0.0000
     0.0000   0.0000

          k =-0.5000-0.2886-0.3759 (  4092 PWs)   bands (ev):

    -6.1604  -6.1604  -5.8089  -5.8089  -3.8986  -3.8986   0.2771   0.2771
     2.1559   2.1559   2.2856   2.2856   3.5724   3.5724   3.9336   3.9336
     5.7918   5.7918   6.7528   6.7528   7.8033   7.8033   8.6582   8.6582
    10.5619  10.5619

     occupation numbers 
     1.0000   1.0000   1.0000   1.0000   1.0000   1.0000   1.0000   1.0000
     1.0000   1.0000   1.0000   1.0000   1.0000   1.0000   1.0000   1.0000
     0.9999   0.9999   0.0000   0.0000   0.0000   0.0000   0.0000   0.0000
     0.0000   0.0000

          k =-0.5000-0.0962 0.0000 (  4114 PWs)   bands (ev):

    -6.6905  -6.6897  -4.8353  -4.8291  -4.2824  -4.2769   1.0918   1.1643
     1.3644   1.4732   2.4391   2.6372   2.9381   3.0601   3.9699   4.0583
     4.2126   4.2532   7.7467   7.7835   8.1039   8.1174   9.2308   9.2407
     9.8674   9.8846

     occupation numbers 
     1.0000   1.0000   1.0000   1.0000   1.0000   1.0000   1.0000   1.0000
     1.0000   1.0000   1.0000   1.0000   1.0000   1.0000   1.0000   1.0000
     1.0000   1.0000   0.0000   0.0000   0.0000   0.0000   0.0000   0.0000
     0.0000   0.0000

          k =-0.5000-0.0962 0.1253 (  4105 PWs)   bands (ev):

    -6.6068  -6.6030  -5.1367  -5.1315  -4.0538  -4.0451   0.8246   0.8576
     1.3253   1.4271   2.3622   2.4935   3.1670   3.3347   4.0399   4.1722
     4.8633   4.9841   7.2992   7.3633   8.3309   8.3631   8.4825   8.5519
    10.0118  10.0667

     occupation numbers 
     1.0000   1.0000   1.0000   1.0000   1.0000   1.0000   1.0000   1.0000
     1.0000   1.0000   1.0000   1.0000   1.0000   1.0000   1.0000   1.0000
     1.0000   1.0000   0.0000   0.0000   0.0000   0.0000   0.0000   0.0000
     0.0000   0.0000

          k =-0.5000-0.0962 0.2506 (  4103 PWs)   bands (ev):

    -6.3731  -6.3662  -5.5783  -5.5701  -3.8553  -3.8475   0.5588   0.6015
     1.3043   1.3800   2.0969   2.1705   3.4153   3.5424   4.9746   5.1814
     5.5423   5.7972   6.6718   6.7339   7.4338   7.5042   8.5100   8.6212
    10.3323  10.4104

     occupation numbers 
     1.0000   1.0000   1.0000   1.0000   1.0000   1.0000   1.0000   1.0000
     1.0000   1.0000   1.0000   1.0000   1.0000   1.0000   1.0000   1.0000
     1.0000   0.9999   0.0000   0.0000   0.0000   0.0000   0.0000   0.0000
     0.0000   0.0000

          k =-0.5000-0.0962-0.3759 (  4100 PWs)   bands (ev):

    -6.1121  -6.1097  -5.8975  -5.8945  -3.8106  -3.8090   0.5454   0.5730
     1.4850   1.5142   1.6283   1.7107   4.2573   4.3603   4.7509   4.7907
     5.5628   5.6367   6.8722   6.9751   7.5529   7.6171   8.1855   8.2333
    10.8097  10.8449

     occupation numbers 
     1.0000   1.0000   1.0000   1.0000   1.0000   1.0000   1.0000   1.0000
     1.0000   1.0000   1.0000   1.0000   1.0000   1.0000   1.0000   1.0000
     1.0000   1.0000   0.0000   0.0000   0.0000   0.0000   0.0000   0.0000
     0.0000   0.0000

          k = 0.0000 0.1924-0.1253 (  4136 PWs)   bands (ev):

    -7.3852  -7.3837  -5.1817  -5.1786  -3.5201  -3.5173   1.8113   1.8991
     2.5320   2.7263   2.8086   3.1680   4.2554   4.3068   4.3989   4.5772
     4.8243   5.0126   6.9980   7.0957   7.3943   7.5188   7.7987   7.8962
    10.6896  10.7299

     occupation numbers 
     1.0000   1.0000   1.0000   1.0000   1.0000   1.0000   1.0000   1.0000
     1.0000   1.0000   1.0000   1.0000   1.0000   1.0000   1.0000   1.0000
     1.0000   1.0000   0.0000   0.0000   0.0000   0.0000   0.0000   0.0000
     0.0000   0.0000

          k = 0.0000 0.1924-0.2506 (  4130 PWs)   bands (ev):

    -7.0954  -7.0927  -5.9642  -5.9603  -2.8510  -2.8466   1.8228   1.8916
     2.6539   2.8159   3.0691   3.3138   3.7397   3.9627   4.1733   4.2612
     4.6449   4.7965   7.0214   7.0635   7.6555   7.7490   7.8123   7.8791
    10.6305  10.6495

     occupation numbers 
     1.0000   1.0000   1.0000   1.0000   1.0000   1.0000   1.0000   1.0000
     1.0000   1.0000   1.0000   1.0000   1.0000   1.0000   1.0000   1.0000
     1.0000   1.0000   0.0000   0.0000   0.0000   0.0000   0.0000   0.0000
     0.0000   0.0000

          k = 0.0000 0.3849-0.1253 (  4102 PWs)   bands (ev):

    -6.9361  -6.9337  -5.0201  -5.0163  -3.9784  -3.9723   1.3191   1.4327
     1.8136   1.9337   2.5451   2.7819   2.8000   3.0296   4.3623   4.6146
     4.8047   4.9685   6.9922   7.0910   7.6885   7.9235   9.1850   9.1981
     9.9697  10.0834

     occupation numbers 
     1.0000   1.0000   1.0000   1.0000   1.0000   1.0000   1.0000   1.0000
     1.0000   1.0000   1.0000   1.0000   1.0000   1.0000   1.0000   1.0000
     1.0000   1.0000   0.0000   0.0000   0.0000   0.0000   0.0000   0.0000
     0.0000   0.0000

          k = 0.0000 0.3849-0.2506 (  4113 PWs)   bands (ev):

    -6.6883  -6.6842  -5.6396  -5.6344  -3.6072  -3.6010   1.1947   1.2689
     1.9570   2.1166   2.5566   2.7006   3.3000   3.6611   3.9128   4.0786
     4.4123   4.6354   7.4029   7.4565   8.2374   8.3960   8.8722   8.8867
    10.5979  10.7099

     occupation numbers 
     1.0000   1.0000   1.0000   1.0000   1.0000   1.0000   1.0000   1.0000
     1.0000   1.0000   1.0000   1.0000   1.0000   1.0000   1.0000   1.0000
     1.0000   1.0000   0.0000   0.0000   0.0000   0.0000   0.0000   0.0000
     0.0000   0.0000

          k =-0.1667 0.0962-0.1253 (  4136 PWs)   bands (ev):

    -7.3825  -7.3810  -5.2095  -5.2063  -3.4628  -3.4600   1.8408   1.9162
     2.0084   2.1399   2.9031   3.0909   4.6556   4.7871   4.9663   5.1620
     5.3546   5.4490   6.6021   6.6297   6.7812   6.9197   7.4223   7.4830
     9.9952  10.0039

     occupation numbers 
     1.0000   1.0000   1.0000   1.0000   1.0000   1.0000   1.0000   1.0000
     1.0000   1.0000   1.0000   1.0000   1.0000   1.0000   1.0000   1.0000
     1.0000   1.0000   0.0000   0.0000   0.0000   0.0000   0.0000   0.0000
     0.0000   0.0000

          k =-0.1667 0.0962-0.2506 (  4130 PWs)   bands (ev):

    -7.0895  -7.0868  -5.9815  -5.9776  -2.8001  -2.7957   1.6976   1.7902
     2.1834   2.3577   3.0056   3.1866   4.4543   4.5275   4.6668   4.7711
     4.9377   5.0385   6.6521   6.7620   6.9814   7.1348   7.6935   7.7068
    10.0218  10.0483

     occupation numbers 
     1.0000   1.0000   1.0000   1.0000   1.0000   1.0000   1.0000   1.0000
     1.0000   1.0000   1.0000   1.0000   1.0000   1.0000   1.0000   1.0000
     1.0000   1.0000   0.0000   0.0000   0.0000   0.0000   0.0000   0.0000
     0.0000   0.0000

          k =-0.1667 0.2886-0.1253 (  4109 PWs)   bands (ev):

    -7.0624  -7.0603  -5.1044  -5.1004  -3.7556  -3.7503   1.2440   1.3082
     1.6672   1.7257   2.7724   2.9089   3.6010   3.6952   4.3713   4.4889
     5.4188   5.4850   6.8728   6.9424   7.6451   7.6876   8.2592   8.2914
    10.2405  10.2711

     occupation numbers 
     1.0000   1.0000   1.0000   1.0000   1.0000   1.0000   1.0000   1.0000
     1.0000   1.0000   1.0000   1.0000   1.0000   1.0000   1.0000   1.0000
     1.0000   1.0000   0.0000   0.0000   0.0000   0.0000   0.0000   0.0000
     0.0000   0.0000

          k =-0.1667 0.2886-0.2506 (  4107 PWs)   bands (ev):

    -6.7916  -6.7877  -5.7711  -5.7660  -3.3129  -3.3071   1.2543   1.3476
     1.7606   1.8956   2.6089   2.7242   3.2971   3.4780   4.8272   4.9542
     5.1690   5.2873   6.8107   6.8644   7.6460   7.6573   8.4448   8.4989
    10.4248  10.4456

     occupation numbers 
     1.0000   1.0000   1.0000   1.0000   1.0000   1.0000   1.0000   1.0000
     1.0000   1.0000   1.0000   1.0000   1.0000   1.0000   1.0000   1.0000
     1.0000   1.0000   0.0000   0.0000   0.0000   0.0000   0.0000   0.0000
     0.0000   0.0000

          k =-0.1667 0.4811-0.1253 (  4105 PWs)   bands (ev):

    -6.6180  -6.6144  -5.0506  -5.0457  -4.1672  -4.1582   1.0169   1.0687
     1.4165   1.4899   2.3940   2.5577   2.8110   3.1846   3.6406   3.8336
     5.0922   5.1558   7.1530   7.2124   8.2232   8.2749   9.2837   9.3077
    10.1223  10.1781

     occupation numbers 
     1.0000   1.0000   1.0000   1.0000   1.0000   1.0000   1.0000   1.0000
     1.0000   1.0000   1.0000   1.0000   1.0000   1.0000   1.0000   1.0000
     1.0000   1.0000   0.0000   0.0000   0.0000   0.0000   0.0000   0.0000
     0.0000   0.0000

          k =-0.1667 0.4811-0.2506 (  4102 PWs)   bands (ev):

    -6.3969  -6.3907  -5.5113  -5.5040  -3.9376  -3.9298   0.8092   0.8826
     1.2040   1.2709   2.0521   2.1269   3.5278   3.7375   4.4381   4.5782
     5.3445   5.4754   6.9329   6.9637   8.0887   8.1554   8.5780   8.6203
    10.5934  10.6388

     occupation numbers 
     1.0000   1.0000   1.0000   1.0000   1.0000   1.0000   1.0000   1.0000
     1.0000   1.0000   1.0000   1.0000   1.0000   1.0000   1.0000   1.0000
     1.0000   1.0000   0.0000   0.0000   0.0000   0.0000   0.0000   0.0000
     0.0000   0.0000

          k =-0.3333 0.1924-0.1253 (  4102 PWs)   bands (ev):

    -6.9184  -6.9158  -5.1816  -5.1772  -3.7238  -3.7174   0.8906   0.9188
     1.3793   1.4781   2.4461   2.5842   4.2348   4.4897   4.7119   4.9900
     5.0046   5.2044   6.7995   6.8605   7.2881   7.3913   7.9005   7.9276
     9.3151   9.3763

     occupation numbers 
     1.0000   1.0000   1.0000   1.0000   1.0000   1.0000   1.0000   1.0000
     1.0000   1.0000   1.0000   1.0000   1.0000   1.0000   1.0000   1.0000
     1.0000   1.0000   0.0000   0.0000   0.0000   0.0000   0.0000   0.0000
     0.0000   0.0000

          k =-0.3333 0.1924-0.2506 (  4113 PWs)   bands (ev):

    -6.6500  -6.6452  -5.7516  -5.7453  -3.4190  -3.4127   0.7253   0.7695
     1.6192   1.7370   2.5921   2.7068   3.9622   4.1236   4.3471   4.4483
     5.7725   5.8255   6.6660   6.7355   7.3122   7.4460   7.8015   8.1409
     9.7944   9.9318

     occupation numbers 
     1.0000   1.0000   1.0000   1.0000   1.0000   1.0000   1.0000   1.0000
     1.0000   1.0000   1.0000   1.0000   1.0000   1.0000   1.0000   1.0000
     0.9999   0.9996   0.0000   0.0000   0.0000   0.0000   0.0000   0.0000
     0.0000   0.0000

          k =-0.3333 0.3849-0.1253 (  4105 PWs)   bands (ev):

    -6.6068  -6.6031  -5.1367  -5.1315  -4.0538  -4.0451   0.8246   0.8576
     1.3253   1.4271   2.3622   2.4935   3.1671   3.3348   4.0400   4.1723
     4.8634   4.9843   7.2994   7.3635   8.3309   8.3630   8.4826   8.5519
    10.0117  10.0666

     occupation numbers 
     1.0000   1.0000   1.0000   1.0000   1.0000   1.0000   1.0000   1.0000
     1.0000   1.0000   1.0000   1.0000   1.0000   1.0000   1.0000   1.0000
     1.0000   1.0000   0.0000   0.0000   0.0000   0.0000   0.0000   0.0000
     0.0000   0.0000

          k =-0.3333 0.3849-0.2506 (  4103 PWs)   bands (ev):

    -6.3732  -6.3663  -5.5784  -5.5701  -3.8552  -3.8475   0.5589   0.6016
     1.3041   1.3797   2.0969   2.1705   3.4156   3.5427   4.9746   5.1815
     5.5424   5.7974   6.6720   6.7341   7.4341   7.5046   8.5095   8.6207
    10.3323  10.4103

     occupation numbers 
     1.0000   1.0000   1.0000   1.0000   1.0000   1.0000   1.0000   1.0000
     1.0000   1.0000   1.0000   1.0000   1.0000   1.0000   1.0000   1.0000
     1.0000   0.9999   0.0000   0.0000   0.0000   0.0000   0.0000   0.0000
     0.0000   0.0000

          k = 0.5000-0.0962-0.1253 (  4105 PWs)   bands (ev):

    -6.6178  -6.6142  -5.0505  -5.0456  -4.1673  -4.1583   1.0168   1.0686
     1.4164   1.4899   2.3939   2.5576   2.8108   3.1844   3.6405   3.8336
     5.0919   5.1555   7.1525   7.2119   8.2225   8.2742   9.2841   9.3081
    10.1219  10.1777

     occupation numbers 
     1.0000   1.0000   1.0000   1.0000   1.0000   1.0000   1.0000   1.0000
     1.0000   1.0000   1.0000   1.0000   1.0000   1.0000   1.0000   1.0000
     1.0000   1.0000   0.0000   0.0000   0.0000   0.0000   0.0000   0.0000
     0.0000   0.0000

          k = 0.5000-0.0962-0.2506 (  4103 PWs)   bands (ev):

    -6.3966  -6.3905  -5.5113  -5.5040  -3.9376  -3.9299   0.8091   0.8824
     1.2038   1.2707   2.0521   2.1269   3.5277   3.7374   4.4378   4.5780
     5.3440   5.4750   6.9329   6.9637   8.0882   8.1550   8.5783   8.6206
    10.5931  10.6386

     occupation numbers 
     1.0000   1.0000   1.0000   1.0000   1.0000   1.0000   1.0000   1.0000
     1.0000   1.0000   1.0000   1.0000   1.0000   1.0000   1.0000   1.0000
     1.0000   1.0000   0.0000   0.0000   0.0000   0.0000   0.0000   0.0000
     0.0000   0.0000

     the Fermi energy is     6.1460 ev

!    total energy              =     -85.64373224 Ry
     estimated scf accuracy    <          5.8E-09 Ry
     smearing contrib. (-TS)   =      -0.00009243 Ry
     internal energy E=F+TS    =     -85.64363981 Ry

     The total energy is F=E-TS. E is the sum of the following terms:
     one-electron contribution =      10.16293776 Ry
     hartree contribution      =       3.37515490 Ry
     xc contribution           =     -49.70165621 Ry
     ewald contribution        =     -49.48007626 Ry

     convergence has been achieved in   8 iterations

     Forces acting on atoms (cartesian axes, Ry/au):

     atom    1 type  1   force =     0.01517425    0.00000000    0.00000000
     atom    2 type  1   force =    -0.00758713    0.01312513    0.00001186
     atom    3 type  1   force =    -0.00758713   -0.01312513   -0.00001186
     The non-local contrib.  to forces
     atom    1 type  1   force =    -0.14631694    0.00000000    0.00000000
     atom    2 type  1   force =     0.07315040   -0.12672441   -0.00000577
     atom    3 type  1   force =     0.07315040    0.12672441    0.00000577
     The ionic contribution  to forces
     atom    1 type  1   force =     0.73278445    0.00000016    0.00000089
     atom    2 type  1   force =    -0.36639209    0.63466879    0.00010847
     atom    3 type  1   force =    -0.36639236   -0.63466895   -0.00010936
     The local contribution  to forces
     atom    1 type  1   force =    -0.59619701   -0.00000000    0.00000000
     atom    2 type  1   force =     0.29810281   -0.51638745   -0.00007139
     atom    3 type  1   force =     0.29810295    0.51638736    0.00006933
     The core correction contribution to forces
     atom    1 type  1   force =     0.02488855   -0.00000000   -0.00000000
     atom    2 type  1   force =    -0.01244289    0.02155618    0.00000157
     atom    3 type  1   force =    -0.01244292   -0.02155616   -0.00000126
     The Hubbard contrib.    to forces
     atom    1 type  1   force =     0.00000000    0.00000000    0.00000000
     atom    2 type  1   force =     0.00000000    0.00000000    0.00000000
     atom    3 type  1   force =     0.00000000    0.00000000    0.00000000
     The SCF correction term to forces
     atom    1 type  1   force =     0.00001493    0.00000000    0.00000000
     atom    2 type  1   force =    -0.00000555    0.00001191   -0.00002235
     atom    3 type  1   force =    -0.00000555   -0.00001191    0.00002235

     Total force =     0.026266     Total SCF correction =     0.000040


     Computing stress (Cartesian axis) and pressure

          total   stress  (Ry/bohr**3)                   (kbar)     P=       23.98
   0.00014056   0.00000000   0.00000000           20.68        0.00        0.00
   0.00000000   0.00014030   0.00000016            0.00       20.64        0.02
   0.00000000   0.00000016   0.00020809            0.00        0.02       30.61

     kinetic stress (kbar)   2339.37      0.00      0.00
                                0.00   2339.33     -0.00
                                0.00     -0.00   2212.75

     local   stress (kbar)    156.31     -0.00     -0.00
                               -0.00    156.61     -0.31
                               -0.00     -0.31   -576.23

     nonloc. stress (kbar)   2368.81      0.00      0.00
                                0.00   2368.79      0.01
                                0.00      0.01   2358.88

     hartree stress (kbar)    181.35      0.00      0.00
                                0.00    181.27      0.07
                                0.00      0.07    358.57

     exc-cor stress (kbar)   6994.99      0.00      0.00
                                0.00   6994.99      0.00
                                0.00      0.00   6997.39

     corecor stress (kbar)  -8265.61     -0.00     -0.00
                               -0.00  -8265.61     -0.00
                               -0.00     -0.00  -8257.39

     ewald   stress (kbar)  -3754.54      0.00      0.00
                                0.00  -3754.75      0.26
                                0.00      0.26  -3063.36

     hubbard stress (kbar)      0.00      0.00      0.00
                                0.00      0.00      0.00
                                0.00      0.00      0.00

     DFT-D   stress (kbar)      0.00      0.00      0.00
                                0.00      0.00      0.00
                                0.00      0.00      0.00

     XDM     stress (kbar)      0.00      0.00      0.00
                                0.00      0.00      0.00
                                0.00      0.00      0.00

     dft-nl  stress (kbar)      0.00      0.00      0.00
                                0.00      0.00      0.00
                                0.00      0.00      0.00

     TS-vdW  stress (kbar)      0.00      0.00      0.00
                                0.00      0.00      0.00
                                0.00      0.00      0.00

     MDB     stress (kbar)      0.00      0.00      0.00
                                0.00      0.00      0.00
                                0.00      0.00      0.00

     3D-RISM stress (kbar)      0.00      0.00      0.00
                                0.00      0.00      0.00
                                0.00      0.00      0.00


     Writing all to output data dir /home/user/workspace/qe_runs/strain_0/out/te0.save/ :
     XML data file, charge density, pseudopotentials, collected wavefunctions

     init_run     :      3.45s CPU      3.74s WALL (       1 calls)
     electrons    :    105.06s CPU    109.51s WALL (       1 calls)
     forces       :      1.23s CPU      1.34s WALL (       1 calls)
     stress       :      6.24s CPU      6.63s WALL (       1 calls)

     Called by init_run:
     wfcinit      :      2.54s CPU      2.66s WALL (       1 calls)
     wfcinit:atom :      0.03s CPU      0.03s WALL (      68 calls)
     wfcinit:wfcr :      2.41s CPU      2.52s WALL (      68 calls)
     potinit      :      0.18s CPU      0.18s WALL (       1 calls)
     hinit0       :      0.45s CPU      0.46s WALL (       1 calls)

     Called by electrons:
     c_bands      :     88.63s CPU     90.86s WALL (       8 calls)
     sum_band     :     13.97s CPU     15.42s WALL (       8 calls)
     v_of_rho     :      0.24s CPU      0.24s WALL (       9 calls)
     v_h          :      0.01s CPU      0.01s WALL (       9 calls)
     v_xc         :      0.27s CPU      0.28s WALL (      11 calls)
     newd         :      2.32s CPU      3.20s WALL (       9 calls)
     mix_rho      :      0.12s CPU      0.14s WALL (       8 calls)

     Called by c_bands:
     init_us_2    :      1.22s CPU      1.23s WALL (    1292 calls)
     cegterg      :     74.94s CPU     77.07s WALL (     544 calls)

     Called by sum_band:
     sum_band:wei :      0.01s CPU      0.01s WALL (       8 calls)
     sum_band:loo :     11.77s CPU     12.08s WALL (       8 calls)
     sum_band:buf :      0.14s CPU      0.15s WALL (     544 calls)
     sum_band:ini :      0.50s CPU      0.50s WALL (     544 calls)
     sum_band:cal :      1.10s CPU      1.13s WALL (     544 calls)
     sum_band:bec :      1.28s CPU      1.29s WALL (     544 calls)
     addusdens    :      2.06s CPU      3.19s WALL (       8 calls)
                                        0.00s GPU  (       8 calls)
     addusd:skk   :      0.00s CPU      0.00s WALL (       8 calls)
                                        0.00s GPU  (       8 calls)

     Called by *egterg:
     cdiaghg      :      2.27s CPU      2.30s WALL (    3111 calls)
     cegterg:over :      3.46s CPU      3.50s WALL (    2567 calls)
     cegterg:upda :      1.95s CPU      1.97s WALL (    2567 calls)
     cegterg:last :      3.84s CPU      3.87s WALL (    1533 calls)
     h_psi        :     59.59s CPU     61.65s WALL (    3179 calls)
     s_psi        :      3.61s CPU      3.65s WALL (    3179 calls)
     g_psi        :      0.71s CPU      0.72s WALL (    2567 calls)

     Called by h_psi:
     h_psi:calbec :      4.22s CPU      4.36s WALL (    3179 calls)
     vloc_psi     :     51.44s CPU     53.28s WALL (    3179 calls)
                                        0.00s GPU  (    3179 calls)
     add_vuspsi   :      3.57s CPU      3.65s WALL (    3179 calls)

     General routines
     calbec       :      7.65s CPU      7.85s WALL (    4879 calls)
     fft          :      0.39s CPU      0.40s WALL (     239 calls)
     ffts         :      0.16s CPU      0.16s WALL (      68 calls)
     fftw         :     51.45s CPU     53.25s WALL (  224136 calls)
     interpolate  :      0.18s CPU      0.18s WALL (      36 calls)

     Parallel routines

     PWSCF        :   1m56.20s CPU   2m 1.63s WALL


   This run was terminated on:   7:19:31  20Aug2026            

=------------------------------------------------------------------------------=
   JOB DONE.
=------------------------------------------------------------------------------=
