
     Program PWSCF v.7.5 starts on 20Aug2026 at  7:20:27 

     This program is part of the open-source Quantum ESPRESSO suite
     for quantum simulation of materials; please cite
         "P. Giannozzi et al., J. Phys.:Condens. Matter 21 395502 (2009);
         "P. Giannozzi et al., J. Phys.:Condens. Matter 29 465901 (2017);
         "P. Giannozzi et al., J. Chem. Phys. 152 154105 (2020);
          URL http://www.quantum-espresso.org", 
     in publications or presentations arising from this work. More details at
     http://www.quantum-espresso.org/quote

     Parallel version (MPI & OpenMP), running on       2 processor cores
     Number of MPI processes:                 2
     Threads/MPI process:                     1

     MPI processes distributed on     1 nodes
     4101 MiB available memory on the printing compute node when the environment starts

     Reading input from bands.in

     Current dimensions of program PWSCF are:
     Max number of different atomic species (ntypx) = 10
     Max number of k-points (npk) =  40000
     Max angular momentum in pseudopotentials (lmaxx) =  4
     file Te.rel-pbe-n-rrkjus_psl.1.0.0.UPF: wavefunction(s)  5S renormalized

     Atomic positions and unit cell read from directory:
     /home/user/workspace/qe_runs/strain_0/out/te0.save/

     Message from routine setup:
     using ibrav=0 with symmetry is DISCOURAGED, use correct ibrav instead

     R & G space division:  proc/nbgrp/npool/nimage =       2
     Subspace diagonalization in iterative solution of the eigenvalue problem:
     a serial algorithm will be used


     Parallelization info
     --------------------
     sticks:   dense  smooth     PW     G-vecs:    dense   smooth      PW
     Min         741     483    147                30215    16410    2632
     Max         742     484    148                30216    16411    2633
     Sum        1483     967    295                60431    32821    5265

     Using Slab Decomposition



     bravais-lattice index     =            0
     lattice parameter (alat)  =       8.4229  a.u.
     unit-cell volume          =     688.4532 (a.u.)^3
     number of atoms/cell      =            3
     number of atomic types    =            1
     number of electrons       =        18.00
     number of Kohn-Sham states=           28
     kinetic-energy cutoff     =      50.0000  Ry
     charge density cutoff     =     300.0000  Ry
     Exchange-correlation= PBE
                           (   1   4   3   4   0   0   0)
     Non magnetic calculation with spin-orbit


     celldm(1)=   8.422887  celldm(2)=   0.000000  celldm(3)=   0.000000
     celldm(4)=   0.000000  celldm(5)=   0.000000  celldm(6)=   0.000000

     crystal axes: (cart. coord. in units of alat)
               a(1) = (   1.000000   0.000000   0.000000 )  
               a(2) = (  -0.500000   0.866108   0.000000 )  
               a(3) = (   0.000000   0.000000   1.330207 )  

     reciprocal axes: (cart. coord. in units 2 pi/alat)
               b(1) = (  1.000000  0.577295 -0.000000 )  
               b(2) = (  0.000000  1.154590  0.000000 )  
               b(3) = (  0.000000 -0.000000  0.751763 )  


     PseudoPot. # 1 for Te read from file:
     /home/user/workspace/qe_runs/pseudo/Te.rel-pbe-n-rrkjus_psl.1.0.0.UPF
     MD5 check sum: 7fd30b6833abd190471e4dcc2367351b
     Pseudo is Ultrasoft + core correction, Zval =  6.0
     Generated using &quot;atomic&quot; code by A. Dal Corso  v.6.3
     Using radial grid of 1245 points, 10 beta functions with: 
                l(1) =   0
                l(2) =   0
                l(3) =   1
                l(4) =   1
                l(5) =   1
                l(6) =   1
                l(7) =   2
                l(8) =   2
                l(9) =   2
               l(10) =   2
     Q(r) pseudized with 0 coefficients 


     atomic species   valence    mass     pseudopotential
     Te                6.00   127.60000     Te( 1.00)

      2 Sym. Ops. (no inversion) found ( 1 have fractional translation)


                                    s                        frac. trans.

      isym =  1     identity                                     

 cryst.   s( 1) = (     1          0          0      )
                  (     0          1          0      )
                  (     0          0          1      )

 cart.    s( 1) = (  1.0000000  0.0000000  0.0000000 )
                  (  0.0000000  1.0000000  0.0000000 )
                  (  0.0000000  0.0000000  1.0000000 )


      isym =  2     180 deg rotation - cart. axis [1,0,0]        

 cryst.   s( 2) = (     1          0          0      )    f =(  0.0000000 )
                  (    -1         -1          0      )       (  0.0000000 )
                  (     0          0         -1      )       (  0.3333334 )

 cart.    s( 2) = (  1.0000000  0.0000000  0.0000000 )    f =(  0.0000000 )
                  (  0.0000000 -1.0000000  0.0000000 )       (  0.0000000 )
                  (  0.0000000  0.0000000 -1.0000000 )       (  0.4434025 )


   Cartesian axes

     site n.     atom                  positions (alat units)
         1        Te     tau(   1) = (   0.2636000   0.0000000   0.4434024  )
         2        Te     tau(   2) = (  -0.1318000   0.2283061   0.8868049  )
         3        Te     tau(   3) = (  -0.1318000  -0.2283061   0.0000000  )

   Crystallographic axes

     site n.     atom                  positions (cryst. coord.)
         1        Te     tau(   1) = (  0.2636000  0.0000000  0.3333333  )
         2        Te     tau(   2) = ( -0.0000000  0.2636000  0.6666667  )
         3        Te     tau(   3) = ( -0.2636000 -0.2636000  0.0000000  )

     number of k points=    14  Gaussian smearing, width (Ry)=  0.0100
                       cart. coord. in units 2pi/alat
        k(    1) = (   0.3333333   0.5772951   0.0000000), wk =   0.0714286
        k(    2) = (   0.3333333   0.5772951   0.0751763), wk =   0.0714286
        k(    3) = (   0.3333333   0.5772951   0.1503525), wk =   0.0714286
        k(    4) = (   0.3333333   0.5772951   0.2255288), wk =   0.0714286
        k(    5) = (   0.3333333   0.5772951   0.3007050), wk =   0.0714286
        k(    6) = (   0.3333333   0.5772951   0.3382931), wk =   0.0714286
        k(    7) = (   0.3333333   0.5772951   0.3758813), wk =   0.0714286
        k(    8) = (   0.3333333   0.5772951   0.4134694), wk =   0.0714286
        k(    9) = (   0.3333333   0.5772951   0.4510575), wk =   0.0714286
        k(   10) = (   0.2500000   0.4329714   0.3758813), wk =   0.0714286
        k(   11) = (   0.1500000   0.2597828   0.3758813), wk =   0.0714286
        k(   12) = (   0.0500000   0.0865943   0.3758813), wk =   0.0714286
        k(   13) = (   0.0000000   0.0000000   0.3758813), wk =   0.0714286
        k(   14) = (   0.0000000   0.0000000   0.0000000), wk =   0.0714286

                       cryst. coord.
        k(    1) = (   0.3333333   0.3333333   0.0000000), wk =   0.0714286
        k(    2) = (   0.3333333   0.3333333   0.1000000), wk =   0.0714286
        k(    3) = (   0.3333333   0.3333333   0.2000000), wk =   0.0714286
        k(    4) = (   0.3333333   0.3333333   0.3000000), wk =   0.0714286
        k(    5) = (   0.3333333   0.3333333   0.4000000), wk =   0.0714286
        k(    6) = (   0.3333333   0.3333333   0.4500000), wk =   0.0714286
        k(    7) = (   0.3333333   0.3333333   0.5000000), wk =   0.0714286
        k(    8) = (   0.3333333   0.3333333   0.5500000), wk =   0.0714286
        k(    9) = (   0.3333333   0.3333333   0.6000000), wk =   0.0714286
        k(   10) = (   0.2500000   0.2500000   0.5000000), wk =   0.0714286
        k(   11) = (   0.1500000   0.1500000   0.5000000), wk =   0.0714286
        k(   12) = (   0.0500000   0.0500000   0.5000000), wk =   0.0714286
        k(   13) = (   0.0000000   0.0000000   0.5000000), wk =   0.0714286
        k(   14) = (   0.0000000   0.0000000   0.0000000), wk =   0.0714286

     Dense  grid:    60431 G-vectors     FFT dimensions: (  48,  48,  72)

     Smooth grid:    32821 G-vectors     FFT dimensions: (  40,  40,  54)

     Dynamical RAM for                 wfc:       1.76 MB

     Dynamical RAM for     wfc (w. buffer):       1.76 MB

     Dynamical RAM for           str. fact:       0.46 MB

     Dynamical RAM for           local pot:       0.00 MB

     Dynamical RAM for          nlocal pot:       3.20 MB

     Dynamical RAM for                qrad:       3.64 MB

     Dynamical RAM for          rho,v,vnew:      13.13 MB

     Dynamical RAM for           G-vectors:       1.85 MB

     Dynamical RAM for          h,s,v(r/c):       0.14 MB

     Dynamical RAM for          <psi|beta>:       0.09 MB

     Dynamical RAM for                 psi:       3.51 MB

     Dynamical RAM for                hpsi:       3.51 MB

     Dynamical RAM for                spsi:       3.51 MB

     Dynamical RAM for      wfcinit/wfcrot:       2.65 MB

     Dynamical RAM for           addusdens:     282.63 MB

     Estimated static dynamical RAM per process >      30.02 MB

     Estimated max dynamical RAM per process >     312.65 MB

     Estimated total dynamical RAM >     625.30 MB

     The potential is recalculated from file :
     /home/user/workspace/qe_runs/strain_0/out/te0.save/charge-density

     Starting wfcs are   24 randomized atomic wfcs +    4 random wfcs

     Band Structure Calculation
     Davidson diagonalization with overlap

     Computing kpt #:     1  of    14
     total cpu time spent up to now is        2.1 secs

     Computing kpt #:     2  of    14
     total cpu time spent up to now is        2.8 secs

     Computing kpt #:     3  of    14
     total cpu time spent up to now is        3.5 secs

     Computing kpt #:     4  of    14
     total cpu time spent up to now is        4.2 secs

     Computing kpt #:     5  of    14
     total cpu time spent up to now is        5.0 secs

     Computing kpt #:     6  of    14
     total cpu time spent up to now is        5.8 secs

     Computing kpt #:     7  of    14
     total cpu time spent up to now is        6.7 secs

     Computing kpt #:     8  of    14
     total cpu time spent up to now is        7.6 secs

     Computing kpt #:     9  of    14
     total cpu time spent up to now is        8.3 secs

     Computing kpt #:    10  of    14
     total cpu time spent up to now is        9.1 secs

     Computing kpt #:    11  of    14
     total cpu time spent up to now is        9.9 secs

     Computing kpt #:    12  of    14
     total cpu time spent up to now is       10.6 secs

     Computing kpt #:    13  of    14
     total cpu time spent up to now is       11.4 secs

     Computing kpt #:    14  of    14
     total cpu time spent up to now is       12.1 secs

     ethr =  1.00E-06,  avg # of iterations = 32.3

     total cpu time spent up to now is       12.1 secs

     End of band structure calculation

          k = 0.3333 0.5773 0.0000 (  4116 PWs)   bands (ev):

    -6.4958  -6.4958  -4.6586  -4.6555  -4.6555  -4.6439   1.2350   1.4222
     1.4223   1.4371   2.7634   2.7634   2.8601   3.0611   3.0611   3.0904
     3.4471   3.4471   8.7386   8.7797   8.9457   8.9457   9.1930   9.1931
    10.8660  10.8660  11.8677  11.8678

          k = 0.3333 0.5773 0.0752 (  4110 PWs)   bands (ev):

    -6.4702  -6.4673  -4.8847  -4.8840  -4.4487  -4.4403   1.0813   1.1069
     1.4359   1.6060   2.4697   2.4929   2.7516   2.8376   3.4602   3.4651
     3.8181   3.9846   8.5100   8.6845   8.7771   8.9455   9.0383   9.0539
    10.9289  10.9653  11.7107  11.8066

          k = 0.3333 0.5773 0.1504 (  4122 PWs)   bands (ev):

    -6.3914  -6.3859  -5.1336  -5.1285  -4.2694  -4.2589   0.8720   0.9002
     1.2349   1.3818   1.9667   2.0812   3.0158   3.1959   4.0700   4.1330
     4.4582   4.6661   8.0202   8.1663   8.5903   8.6476   8.6577   8.7232
    11.1508  11.2017  11.6232  11.6618

          k = 0.3333 0.5773 0.2255 (  4119 PWs)   bands (ev):

    -6.2627  -6.2549  -5.3897  -5.3813  -4.1261  -4.1164   0.7596   0.8127
     0.9828   1.0661   1.5252   1.6389   3.6589   3.8040   4.7281   4.8566
     5.0965   5.3610   7.3393   7.4605   8.1002   8.1624   8.2450   8.3045
    11.5135  11.5634  11.6658  11.6707

          k = 0.3333 0.5773 0.3007 (  4095 PWs)   bands (ev):

    -6.0894  -6.0798  -5.6422  -5.6320  -4.0307  -4.0247   0.7751   0.7759
     0.8371   0.8764   1.1714   1.2775   4.3696   4.4731   5.3591   5.5689
     5.6226   5.9794   6.5980   6.6936   7.5300   7.6983   7.7860   7.8299
    11.7910  11.8110  12.0030  12.0482

          k = 0.3333 0.5773 0.3383 (  4107 PWs)   bands (ev):

    -5.9884  -5.9783  -5.7634  -5.7529  -4.0047  -4.0016   0.7436   0.7708
     0.8283   0.9285   1.0331   1.1335   4.6729   4.7387   5.6261   5.7780
     5.8786   6.1663   6.2908   6.3552   7.3410   7.5357   7.5615   7.6510
    11.8599  11.8744  12.2821  12.3241

          k = 0.3333 0.5773 0.3759 (  4116 PWs)   bands (ev):

    -5.8793  -5.8793  -5.8724  -5.8652  -3.9949  -3.9949   0.7398   0.7398
     0.8898   0.9431   1.0163   1.0164   4.8285   4.8286   5.8008   5.8009
     6.0498   6.1661   6.1662   6.1908   7.3162   7.3835   7.5463   7.5463
    11.8947  11.8948  12.5476  12.5529

          k = 0.3333 0.5773 0.4135 (  4107 PWs)   bands (ev):

    -5.9884  -5.9783  -5.7634  -5.7529  -4.0047  -4.0016   0.7436   0.7708
     0.8283   0.9285   1.0331   1.1335   4.6729   4.7387   5.6261   5.7780
     5.8786   6.1663   6.2908   6.3552   7.3410   7.5357   7.5615   7.6510
    11.8599  11.8744  12.2821  12.3241

          k = 0.3333 0.5773 0.4511 (  4095 PWs)   bands (ev):

    -6.0894  -6.0798  -5.6422  -5.6320  -4.0307  -4.0247   0.7751   0.7759
     0.8371   0.8764   1.1714   1.2775   4.3696   4.4731   5.3591   5.5689
     5.6226   5.9794   6.5980   6.6936   7.5300   7.6983   7.7860   7.8299
    11.7910  11.8110  12.0030  12.0482

          k = 0.2500 0.4330 0.3759 (  4110 PWs)   bands (ev):

    -6.0855  -6.0816  -5.9375  -5.9329  -3.7809  -3.7790   0.7230   0.7838
     1.2035   1.2374   1.4902   1.5548   4.4104   4.5159   5.1067   5.1382
     5.5326   5.6237   6.7074   6.8093   7.7341   7.7495   7.9054   7.9335
    11.0569  11.0807  12.0009  12.0058

          k = 0.1500 0.2598 0.3759 (  4124 PWs)   bands (ev):

    -6.4602  -6.4575  -6.3795  -6.3768  -2.9987  -2.9974   1.3577   1.4599
     2.2098   2.2775   2.3708   2.4353   3.8147   3.9866   4.3526   4.3849
     5.0761   5.1620   6.6947   6.7706   8.0651   8.0824   8.2875   8.3092
    10.6329  10.6733  11.0806  11.0844

          k = 0.0500 0.0866 0.3759 (  4134 PWs)   bands (ev):

    -6.7295  -6.7283  -6.7191  -6.7185  -2.2833  -2.2829   1.7861   1.8231
     3.0347   3.1178   3.3285   3.3479   4.2207   4.3449   4.5547   4.5910
     4.8644   4.9904   6.4969   6.5586   6.9780   6.9808   7.1552   7.1922
    10.1689  10.1703  11.0852  11.0979

          k = 0.0000 0.0000 0.3759 (  4142 PWs)   bands (ev):

    -6.7676  -6.7676  -6.7645  -6.7645  -2.1726  -2.1726   1.8227   1.8227
     3.1646   3.1646   3.4524   3.4524   4.5466   4.5466   4.7797   4.7797
     5.0602   5.0602   6.4468   6.4468   6.5503   6.5503   6.7770   6.7770
    10.0193  10.0193  11.3058  11.3058

          k = 0.0000 0.0000 0.0000 (  4117 PWs)   bands (ev):

    -7.6615  -7.6615  -4.3300  -4.3300  -4.3287  -4.3287   2.7398   2.7398
     2.9395   2.9395   3.3733   3.3733   4.3270   4.3270   4.3745   4.3745
     5.2372   5.2372   6.6535   6.6535   7.2712   7.2712   7.8028   7.8028
    10.9665  10.9665  10.9685  10.9685

     Writing all to output data dir /home/user/workspace/qe_runs/strain_0/out/te0.save/ :
     XML data file, pseudopotentials, collected wavefunctions

     init_run     :      0.91s CPU      1.05s WALL (       1 calls)
     electrons    :     10.60s CPU     10.92s WALL (       1 calls)

     Called by init_run:
     wfcinit      :      0.00s CPU      0.00s WALL (       1 calls)
     wfcinit:atom :      0.01s CPU      0.01s WALL (      14 calls)
     wfcinit:wfcr :      0.52s CPU      0.54s WALL (      14 calls)
     potinit      :      0.17s CPU      0.18s WALL (       1 calls)
     hinit0       :      0.46s CPU      0.47s WALL (       1 calls)

     Called by electrons:
     c_bands      :     10.60s CPU     10.92s WALL (       1 calls)
     v_of_rho     :      0.02s CPU      0.03s WALL (       1 calls)
     v_h          :      0.00s CPU      0.00s WALL (       1 calls)
     v_xc         :      0.02s CPU      0.03s WALL (       1 calls)
     newd         :      0.26s CPU      0.39s WALL (       1 calls)

     Called by c_bands:
     init_us_2    :      0.01s CPU      0.01s WALL (      14 calls)
     cegterg      :      9.72s CPU      9.99s WALL (      30 calls)

     Called by sum_band:

     Called by *egterg:
     cdiaghg      :      0.40s CPU      0.41s WALL (     466 calls)
     cegterg:over :      0.53s CPU      0.54s WALL (     452 calls)
     cegterg:upda :      0.33s CPU      0.33s WALL (     452 calls)
     cegterg:last :      0.67s CPU      0.68s WALL (     200 calls)
     h_psi        :      7.53s CPU      7.80s WALL (     496 calls)
     s_psi        :      0.46s CPU      0.47s WALL (     496 calls)
     g_psi        :      0.10s CPU      0.10s WALL (     452 calls)

     Called by h_psi:
     h_psi:calbec :      0.54s CPU      0.56s WALL (     496 calls)
     vloc_psi     :      6.50s CPU      6.73s WALL (     496 calls)
                                        0.00s GPU  (     496 calls)
     add_vuspsi   :      0.45s CPU      0.46s WALL (     496 calls)

     General routines
     calbec       :      0.54s CPU      0.56s WALL (     496 calls)
     fft          :      0.21s CPU      0.21s WALL (      19 calls)
     ffts         :      0.14s CPU      0.14s WALL (       4 calls)
     fftw         :      5.68s CPU      5.88s WALL (   24264 calls)
     interpolate  :      0.14s CPU      0.14s WALL (       4 calls)
     davcio       :      0.01s CPU      0.02s WALL (      28 calls)

     Parallel routines

     PWSCF        :     11.68s CPU     12.81s WALL


   This run was terminated on:   7:20:40  20Aug2026            

=------------------------------------------------------------------------------=
   JOB DONE.
=------------------------------------------------------------------------------=
