
     Program PWSCF v.7.5 starts on 20Aug2026 at  8:28: 6 

     This program is part of the open-source Quantum ESPRESSO suite
     for quantum simulation of materials; please cite
         "P. Giannozzi et al., J. Phys.:Condens. Matter 21 395502 (2009);
         "P. Giannozzi et al., J. Phys.:Condens. Matter 29 465901 (2017);
         "P. Giannozzi et al., J. Chem. Phys. 152 154105 (2020);
          URL http://www.quantum-espresso.org", 
     in publications or presentations arising from this work. More details at
     http://www.quantum-espresso.org/quote

     Parallel version (MPI & OpenMP), running on       2 processor cores
     Number of MPI processes:                 2
     Threads/MPI process:                     1

     MPI processes distributed on     1 nodes
     948 MiB available memory on the printing compute node when the environment starts

     Reading input from strain_zero_clean/bands.in

     Current dimensions of program PWSCF are:
     Max number of different atomic species (ntypx) = 10
     Max number of k-points (npk) =  40000
     Max angular momentum in pseudopotentials (lmaxx) =  4
     file Te.rel-pbe-n-rrkjus_psl.1.0.0.UPF: wavefunction(s)  5S renormalized

     Atomic positions and unit cell read from directory:
     /home/user/workspace/qe_runs/strain_zero_clean/out/te0clean.save/

     Message from routine setup:
     using ibrav=0 with symmetry is DISCOURAGED, use correct ibrav instead

     R & G space division:  proc/nbgrp/npool/nimage =       2
     Subspace diagonalization in iterative solution of the eigenvalue problem:
     a serial algorithm will be used


     Parallelization info
     --------------------
     sticks:   dense  smooth     PW     G-vecs:    dense   smooth      PW
     Min         741     483    147                30207    16402    2709
     Max         742     484    148                30208    16403    2712
     Sum        1483     967    295                60415    32805    5421

     Using Slab Decomposition



     bravais-lattice index     =            0
     lattice parameter (alat)  =       8.4229  a.u.
     unit-cell volume          =     688.3873 (a.u.)^3
     number of atoms/cell      =            3
     number of atomic types    =            1
     number of electrons       =        18.00
     number of Kohn-Sham states=           28
     kinetic-energy cutoff     =      50.0000  Ry
     charge density cutoff     =     300.0000  Ry
     Exchange-correlation= PBE
                           (   1   4   3   4   0   0   0)
     Non magnetic calculation with spin-orbit


     celldm(1)=   8.422887  celldm(2)=   0.000000  celldm(3)=   0.000000
     celldm(4)=   0.000000  celldm(5)=   0.000000  celldm(6)=   0.000000

     crystal axes: (cart. coord. in units of alat)
               a(1) = (   1.000000   0.000000   0.000000 )  
               a(2) = (  -0.500000   0.866025   0.000000 )  
               a(3) = (   0.000000   0.000000   1.330207 )  

     reciprocal axes: (cart. coord. in units 2 pi/alat)
               b(1) = (  1.000000  0.577350 -0.000000 )  
               b(2) = (  0.000000  1.154701  0.000000 )  
               b(3) = (  0.000000 -0.000000  0.751763 )  


     PseudoPot. # 1 for Te read from file:
     /home/user/workspace/qe_runs/pseudo/Te.rel-pbe-n-rrkjus_psl.1.0.0.UPF
     MD5 check sum: 7fd30b6833abd190471e4dcc2367351b
     Pseudo is Ultrasoft + core correction, Zval =  6.0
     Generated using &quot;atomic&quot; code by A. Dal Corso  v.6.3
     Using radial grid of 1245 points, 10 beta functions with: 
                l(1) =   0
                l(2) =   0
                l(3) =   1
                l(4) =   1
                l(5) =   1
                l(6) =   1
                l(7) =   2
                l(8) =   2
                l(9) =   2
               l(10) =   2
     Q(r) pseudized with 0 coefficients 


     atomic species   valence    mass     pseudopotential
     Te                6.00   127.60000     Te( 1.00)

      6 Sym. Ops. (no inversion) found ( 4 have fractional translation)


                                    s                        frac. trans.

      isym =  1     identity                                     

 cryst.   s( 1) = (     1          0          0      )
                  (     0          1          0      )
                  (     0          0          1      )

 cart.    s( 1) = (  1.0000000  0.0000000  0.0000000 )
                  (  0.0000000  1.0000000  0.0000000 )
                  (  0.0000000  0.0000000  1.0000000 )


      isym =  2     180 deg rotation - cart. axis [1,0,0]        

 cryst.   s( 2) = (     1          0          0      )    f =(  0.0000000 )
                  (    -1         -1          0      )       (  0.0000000 )
                  (     0          0         -1      )       (  0.3333334 )

 cart.    s( 2) = (  1.0000000  0.0000000  0.0000000 )    f =(  0.0000000 )
                  (  0.0000000 -1.0000000  0.0000000 )       (  0.0000000 )
                  (  0.0000000  0.0000000 -1.0000000 )       (  0.4434025 )


      isym =  3     120 deg rotation - cryst. axis [0,0,1]       

 cryst.   s( 3) = (     0          1          0      )    f =(  0.0000000 )
                  (    -1         -1          0      )       (  0.0000000 )
                  (     0          0          1      )       ( -0.3333333 )

 cart.    s( 3) = ( -0.5000000 -0.8660255  0.0000000 )    f =(  0.0000000 )
                  (  0.8660253 -0.5000000  0.0000000 )       (  0.0000000 )
                  (  0.0000000  0.0000000  1.0000000 )       ( -0.4434024 )


      isym =  4     120 deg rotation - cryst. axis [0,0,-1]      

 cryst.   s( 4) = (    -1         -1          0      )    f =(  0.0000000 )
                  (     1          0          0      )       (  0.0000000 )
                  (     0          0          1      )       (  0.3333334 )

 cart.    s( 4) = ( -0.5000000  0.8660255  0.0000000 )    f =(  0.0000000 )
                  ( -0.8660253 -0.5000000  0.0000000 )       (  0.0000000 )
                  (  0.0000000  0.0000000  1.0000000 )       (  0.4434025 )


      isym =  5     180 deg rotation - cryst. axis [0,1,0]       

 cryst.   s( 5) = (    -1         -1          0      )    f =(  0.0000000 )
                  (     0          1          0      )       (  0.0000000 )
                  (     0          0         -1      )       ( -0.3333333 )

 cart.    s( 5) = ( -0.5000000 -0.8660255  0.0000000 )    f =(  0.0000000 )
                  ( -0.8660253  0.5000000  0.0000000 )       (  0.0000000 )
                  (  0.0000000  0.0000000 -1.0000000 )       ( -0.4434024 )


      isym =  6     180 deg rotation - cryst. axis [1,1,0]       

 cryst.   s( 6) = (     0          1          0      )
                  (     1          0          0      )
                  (     0          0         -1      )

 cart.    s( 6) = ( -0.5000000  0.8660255  0.0000000 )
                  (  0.8660253  0.5000000  0.0000000 )
                  (  0.0000000  0.0000000 -1.0000000 )


   Cartesian axes

     site n.     atom                  positions (alat units)
         1        Te     tau(   1) = (   0.2636000   0.0000000   0.4434024  )
         2        Te     tau(   2) = (  -0.1318000   0.2282843   0.8868049  )
         3        Te     tau(   3) = (  -0.1318000  -0.2282843   0.0000000  )

   Crystallographic axes

     site n.     atom                  positions (cryst. coord.)
         1        Te     tau(   1) = (  0.2636000  0.0000000  0.3333333  )
         2        Te     tau(   2) = (  0.0000000  0.2636000  0.6666667  )
         3        Te     tau(   3) = ( -0.2636000 -0.2636000  0.0000000  )

     number of k points=     7  Gaussian smearing, width (Ry)=  0.0100
                       cart. coord. in units 2pi/alat
        k(    1) = (   0.3333333   0.5773503   0.0000000), wk =   0.1428571
        k(    2) = (   0.3333333   0.5773503   0.1503525), wk =   0.1428571
        k(    3) = (   0.3333333   0.5773503   0.3007050), wk =   0.1428571
        k(    4) = (   0.3333333   0.5773503   0.3758813), wk =   0.1428571
        k(    5) = (   0.3333333   0.5773503   0.4510575), wk =   0.1428571
        k(    6) = (   0.3333333   0.5773503   0.6014100), wk =   0.1428571
        k(    7) = (   0.0000000   0.0000000   0.3758813), wk =   0.1428571

                       cryst. coord.
        k(    1) = (   0.3333333   0.3333333   0.0000000), wk =   0.1428571
        k(    2) = (   0.3333333   0.3333333   0.2000000), wk =   0.1428571
        k(    3) = (   0.3333333   0.3333333   0.4000000), wk =   0.1428571
        k(    4) = (   0.3333333   0.3333333   0.5000000), wk =   0.1428571
        k(    5) = (   0.3333333   0.3333333   0.6000000), wk =   0.1428571
        k(    6) = (   0.3333333   0.3333333   0.8000000), wk =   0.1428571
        k(    7) = (   0.0000000   0.0000000   0.5000000), wk =   0.1428571

     Dense  grid:    60415 G-vectors     FFT dimensions: (  48,  48,  72)

     Smooth grid:    32805 G-vectors     FFT dimensions: (  40,  40,  54)

     Dynamical RAM for                 wfc:       1.76 MB

     Dynamical RAM for     wfc (w. buffer):       1.76 MB

     Dynamical RAM for           str. fact:       0.46 MB

     Dynamical RAM for           local pot:       0.00 MB

     Dynamical RAM for          nlocal pot:       3.20 MB

     Dynamical RAM for                qrad:       3.64 MB

     Dynamical RAM for          rho,v,vnew:      13.12 MB

     Dynamical RAM for           G-vectors:       1.85 MB

     Dynamical RAM for          h,s,v(r/c):       0.14 MB

     Dynamical RAM for          <psi|beta>:       0.09 MB

     Dynamical RAM for                 psi:       3.51 MB

     Dynamical RAM for                hpsi:       3.51 MB

     Dynamical RAM for                spsi:       3.51 MB

     Dynamical RAM for      wfcinit/wfcrot:       2.65 MB

     Dynamical RAM for           addusdens:     282.55 MB

     Estimated static dynamical RAM per process >      30.02 MB

     Estimated max dynamical RAM per process >     312.58 MB

     Estimated total dynamical RAM >     625.15 MB

     The potential is recalculated from file :
     /home/user/workspace/qe_runs/strain_zero_clean/out/te0clean.save/charge-density

     Starting wfcs are   24 randomized atomic wfcs +    4 random wfcs

     Band Structure Calculation
     Davidson diagonalization with overlap

     Computing kpt #:     1  of     7
     total cpu time spent up to now is        2.1 secs

     Computing kpt #:     2  of     7
     total cpu time spent up to now is        2.8 secs

     Computing kpt #:     3  of     7
     total cpu time spent up to now is        3.5 secs

     Computing kpt #:     4  of     7
     total cpu time spent up to now is        4.5 secs

     Computing kpt #:     5  of     7
     total cpu time spent up to now is        5.3 secs

     Computing kpt #:     6  of     7
     total cpu time spent up to now is        6.0 secs

     Computing kpt #:     7  of     7
     total cpu time spent up to now is        6.8 secs

     ethr =  1.00E-06,  avg # of iterations = 33.9

     total cpu time spent up to now is        6.8 secs

     End of band structure calculation

          k = 0.3333 0.5774 0.0000 (  4116 PWs)   bands (ev):

    -6.4950  -6.4950  -4.6577  -4.6546  -4.6546  -4.6430   1.2357   1.4229
     1.4229   1.4378   2.7642   2.7642   2.8609   3.0619   3.0619   3.0912
     3.4479   3.4479   8.7401   8.7812   8.9472   8.9472   9.1946   9.1946
    10.8673  10.8673  11.8691  11.8691

          k = 0.3333 0.5774 0.1504 (  4122 PWs)   bands (ev):

    -6.3906  -6.3851  -5.1327  -5.1276  -4.2685  -4.2579   0.8726   0.9008
     1.2356   1.3825   1.9674   2.0820   3.0166   3.1967   4.0709   4.1339
     4.4592   4.6670   8.0215   8.1676   8.5917   8.6491   8.6592   8.7247
    11.1520  11.2029  11.6245  11.6630

          k = 0.3333 0.5774 0.3007 (  4095 PWs)   bands (ev):

    -6.0886  -6.0790  -5.6413  -5.6311  -4.0297  -4.0238   0.7757   0.7766
     0.8377   0.8770   1.1720   1.2781   4.3705   4.4740   5.3602   5.5701
     5.6237   5.9806   6.5990   6.6946   7.5313   7.6995   7.7872   7.8311
    11.7923  11.8123  12.0042  12.0493

          k = 0.3333 0.5774 0.3759 (  4116 PWs)   bands (ev):

    -5.8784  -5.8784  -5.8715  -5.8643  -3.9939  -3.9939   0.7404   0.7404
     0.8905   0.9438   1.0170   1.0170   4.8295   4.8295   5.8020   5.8020
     6.0510   6.1671   6.1671   6.1920   7.3174   7.3847   7.5474   7.5474
    11.8960  11.8960  12.5488  12.5540

          k = 0.3333 0.5774 0.4511 (  4095 PWs)   bands (ev):

    -6.0886  -6.0790  -5.6413  -5.6311  -4.0297  -4.0238   0.7757   0.7766
     0.8377   0.8770   1.1720   1.2781   4.3705   4.4740   5.3602   5.5701
     5.6237   5.9806   6.5990   6.6946   7.5313   7.6995   7.7872   7.8311
    11.7923  11.8123  12.0041  12.0493

          k = 0.3333 0.5774 0.6014 (  4122 PWs)   bands (ev):

    -6.3906  -6.3851  -5.1327  -5.1276  -4.2685  -4.2579   0.8726   0.9008
     1.2356   1.3825   1.9674   2.0820   3.0166   3.1967   4.0709   4.1339
     4.4592   4.6670   8.0215   8.1676   8.5917   8.6491   8.6592   8.7247
    11.1520  11.2029  11.6245  11.6631

          k = 0.0000 0.0000 0.3759 (  4142 PWs)   bands (ev):

    -6.7669  -6.7669  -6.7639  -6.7639  -2.1712  -2.1712   1.8233   1.8233
     3.1657   3.1657   3.4536   3.4536   4.5476   4.5476   4.7809   4.7809
     5.0615   5.0615   6.4480   6.4480   6.5517   6.5517   6.7783   6.7783
    10.0200  10.0201  11.3069  11.3070

     Writing all to output data dir /home/user/workspace/qe_runs/strain_zero_clean/out/te0clean.save/ :
     XML data file, pseudopotentials, collected wavefunctions

     init_run     :      0.95s CPU      1.08s WALL (       1 calls)
     electrons    :      5.36s CPU      5.50s WALL (       1 calls)

     Called by init_run:
     wfcinit      :      0.00s CPU      0.00s WALL (       1 calls)
     wfcinit:atom :      0.00s CPU      0.00s WALL (       7 calls)
     wfcinit:wfcr :      0.25s CPU      0.27s WALL (       7 calls)
     potinit      :      0.20s CPU      0.21s WALL (       1 calls)
     hinit0       :      0.46s CPU      0.47s WALL (       1 calls)

     Called by electrons:
     c_bands      :      5.36s CPU      5.50s WALL (       1 calls)
     v_of_rho     :      0.02s CPU      0.03s WALL (       1 calls)
     v_h          :      0.00s CPU      0.00s WALL (       1 calls)
     v_xc         :      0.02s CPU      0.03s WALL (       1 calls)
     newd         :      0.28s CPU      0.38s WALL (       1 calls)

     Called by c_bands:
     init_us_2    :      0.01s CPU      0.01s WALL (       7 calls)
     cegterg      :      4.93s CPU      5.04s WALL (      15 calls)

     Called by sum_band:

     Called by *egterg:
     cdiaghg      :      0.21s CPU      0.21s WALL (     244 calls)
     cegterg:over :      0.28s CPU      0.28s WALL (     237 calls)
     cegterg:upda :      0.18s CPU      0.18s WALL (     237 calls)
     cegterg:last :      0.35s CPU      0.35s WALL (     101 calls)
     h_psi        :      3.77s CPU      3.88s WALL (     259 calls)
     s_psi        :      0.24s CPU      0.24s WALL (     259 calls)
     g_psi        :      0.05s CPU      0.05s WALL (     237 calls)

     Called by h_psi:
     h_psi:calbec :      0.28s CPU      0.29s WALL (     259 calls)
     vloc_psi     :      3.23s CPU      3.33s WALL (     259 calls)
                                        0.00s GPU  (     259 calls)
     add_vuspsi   :      0.23s CPU      0.24s WALL (     259 calls)

     General routines
     calbec       :      0.28s CPU      0.29s WALL (     259 calls)
     fft          :      0.21s CPU      0.22s WALL (      19 calls)
     ffts         :      0.16s CPU      0.16s WALL (       4 calls)
     fftw         :      2.81s CPU      2.89s WALL (   12140 calls)
     interpolate  :      0.17s CPU      0.17s WALL (       4 calls)
     davcio       :      0.01s CPU      0.01s WALL (      14 calls)

     Parallel routines

     PWSCF        :      6.48s CPU      7.82s WALL


   This run was terminated on:   8:28:14  20Aug2026            

=------------------------------------------------------------------------------=
   JOB DONE.
=------------------------------------------------------------------------------=
