
     Program PWSCF v.7.5 starts on 20Aug2026 at  8:26:59 

     This program is part of the open-source Quantum ESPRESSO suite
     for quantum simulation of materials; please cite
         "P. Giannozzi et al., J. Phys.:Condens. Matter 21 395502 (2009);
         "P. Giannozzi et al., J. Phys.:Condens. Matter 29 465901 (2017);
         "P. Giannozzi et al., J. Chem. Phys. 152 154105 (2020);
          URL http://www.quantum-espresso.org", 
     in publications or presentations arising from this work. More details at
     http://www.quantum-espresso.org/quote

     Parallel version (MPI & OpenMP), running on       2 processor cores
     Number of MPI processes:                 2
     Threads/MPI process:                     1

     MPI processes distributed on     1 nodes
     918 MiB available memory on the printing compute node when the environment starts

     Reading input from strain_zero_clean/scf.in

     Current dimensions of program PWSCF are:
     Max number of different atomic species (ntypx) = 10
     Max number of k-points (npk) =  40000
     Max angular momentum in pseudopotentials (lmaxx) =  4
     file Te.rel-pbe-n-rrkjus_psl.1.0.0.UPF: wavefunction(s)  5S renormalized
     Message from routine setup:
     using ibrav=0 with symmetry is DISCOURAGED, use correct ibrav instead

     R & G space division:  proc/nbgrp/npool/nimage =       2
     Subspace diagonalization in iterative solution of the eigenvalue problem:
     a serial algorithm will be used


     Parallelization info
     --------------------
     sticks:   dense  smooth     PW     G-vecs:    dense   smooth      PW
     Min         741     483    141                30207    16402    2589
     Max         742     484    142                30208    16403    2592
     Sum        1483     967    283                60415    32805    5181

     Using Slab Decomposition



     bravais-lattice index     =            0
     lattice parameter (alat)  =       8.4229  a.u.
     unit-cell volume          =     688.3873 (a.u.)^3
     number of atoms/cell      =            3
     number of atomic types    =            1
     number of electrons       =        18.00
     number of Kohn-Sham states=           26
     kinetic-energy cutoff     =      50.0000  Ry
     charge density cutoff     =     300.0000  Ry
     scf convergence threshold =      1.0E-08
     mixing beta               =       0.4000
     number of iterations used =            8  plain     mixing
     Exchange-correlation= PBE
                           (   1   4   3   4   0   0   0)
     Non magnetic calculation with spin-orbit


     celldm(1)=   8.422887  celldm(2)=   0.000000  celldm(3)=   0.000000
     celldm(4)=   0.000000  celldm(5)=   0.000000  celldm(6)=   0.000000

     crystal axes: (cart. coord. in units of alat)
               a(1) = (   1.000000   0.000000   0.000000 )  
               a(2) = (  -0.500000   0.866025   0.000000 )  
               a(3) = (   0.000000   0.000000   1.330207 )  

     reciprocal axes: (cart. coord. in units 2 pi/alat)
               b(1) = (  1.000000  0.577350 -0.000000 )  
               b(2) = (  0.000000  1.154701  0.000000 )  
               b(3) = (  0.000000 -0.000000  0.751763 )  


     PseudoPot. # 1 for Te read from file:
     /home/user/workspace/qe_runs/pseudo/Te.rel-pbe-n-rrkjus_psl.1.0.0.UPF
     MD5 check sum: 7fd30b6833abd190471e4dcc2367351b
     Pseudo is Ultrasoft + core correction, Zval =  6.0
     Generated using &quot;atomic&quot; code by A. Dal Corso  v.6.3
     Using radial grid of 1245 points, 10 beta functions with: 
                l(1) =   0
                l(2) =   0
                l(3) =   1
                l(4) =   1
                l(5) =   1
                l(6) =   1
                l(7) =   2
                l(8) =   2
                l(9) =   2
               l(10) =   2
     Q(r) pseudized with 0 coefficients 


     atomic species   valence    mass     pseudopotential
     Te                6.00   127.60000     Te( 1.00)

      6 Sym. Ops. (no inversion) found ( 4 have fractional translation)


                                    s                        frac. trans.

      isym =  1     identity                                     

 cryst.   s( 1) = (     1          0          0      )
                  (     0          1          0      )
                  (     0          0          1      )

 cart.    s( 1) = (  1.0000000  0.0000000  0.0000000 )
                  (  0.0000000  1.0000000  0.0000000 )
                  (  0.0000000  0.0000000  1.0000000 )


      isym =  2     180 deg rotation - cart. axis [1,0,0]        

 cryst.   s( 2) = (     1          0          0      )    f =(  0.0000000 )
                  (    -1         -1          0      )       (  0.0000000 )
                  (     0          0         -1      )       (  0.3333334 )

 cart.    s( 2) = (  1.0000000  0.0000000  0.0000000 )    f =(  0.0000000 )
                  (  0.0000000 -1.0000000  0.0000000 )       (  0.0000000 )
                  (  0.0000000  0.0000000 -1.0000000 )       (  0.4434025 )


      isym =  3     120 deg rotation - cryst. axis [0,0,1]       

 cryst.   s( 3) = (     0          1          0      )    f =( -0.0000000 )
                  (    -1         -1          0      )       (  0.0000000 )
                  (     0          0          1      )       ( -0.3333333 )

 cart.    s( 3) = ( -0.5000000 -0.8660255  0.0000000 )    f =( -0.0000000 )
                  (  0.8660253 -0.5000000  0.0000000 )       (  0.0000000 )
                  (  0.0000000  0.0000000  1.0000000 )       ( -0.4434024 )


      isym =  4     120 deg rotation - cryst. axis [0,0,-1]      

 cryst.   s( 4) = (    -1         -1          0      )    f =( -0.0000000 )
                  (     1          0          0      )       (  0.0000000 )
                  (     0          0          1      )       (  0.3333334 )

 cart.    s( 4) = ( -0.5000000  0.8660255  0.0000000 )    f =( -0.0000000 )
                  ( -0.8660253 -0.5000000  0.0000000 )       (  0.0000000 )
                  (  0.0000000  0.0000000  1.0000000 )       (  0.4434025 )


      isym =  5     180 deg rotation - cryst. axis [0,1,0]       

 cryst.   s( 5) = (    -1         -1          0      )    f =( -0.0000000 )
                  (     0          1          0      )       (  0.0000000 )
                  (     0          0         -1      )       ( -0.3333333 )

 cart.    s( 5) = ( -0.5000000 -0.8660255  0.0000000 )    f =( -0.0000000 )
                  ( -0.8660253  0.5000000  0.0000000 )       (  0.0000000 )
                  (  0.0000000  0.0000000 -1.0000000 )       ( -0.4434024 )


      isym =  6     180 deg rotation - cryst. axis [1,1,0]       

 cryst.   s( 6) = (     0          1          0      )
                  (     1          0          0      )
                  (     0          0         -1      )

 cart.    s( 6) = ( -0.5000000  0.8660255  0.0000000 )
                  (  0.8660253  0.5000000  0.0000000 )
                  (  0.0000000  0.0000000 -1.0000000 )


   Cartesian axes

     site n.     atom                  positions (alat units)
         1        Te     tau(   1) = (   0.2636000   0.0000000   0.4434024  )
         2        Te     tau(   2) = (  -0.1318000   0.2282843   0.8868049  )
         3        Te     tau(   3) = (  -0.1318000  -0.2282843   0.0000000  )

   Crystallographic axes

     site n.     atom                  positions (cryst. coord.)
         1        Te     tau(   1) = (  0.2636000  0.0000000  0.3333333  )
         2        Te     tau(   2) = ( -0.0000000  0.2636000  0.6666667  )
         3        Te     tau(   3) = ( -0.2636000 -0.2636000  0.0000000  )

     number of k points=    34  Gaussian smearing, width (Ry)=  0.0100
                       cart. coord. in units 2pi/alat
        k(    1) = (   0.0000000   0.0000000   0.0000000), wk =   0.0046296
        k(    2) = (   0.0000000   0.0000000   0.1252938), wk =   0.0092593
        k(    3) = (   0.0000000   0.0000000   0.2505875), wk =   0.0092593
        k(    4) = (   0.0000000   0.0000000  -0.3758813), wk =   0.0046296
        k(    5) = (   0.0000000   0.1924501   0.0000000), wk =   0.0277778
        k(    6) = (   0.0000000   0.1924501   0.1252938), wk =   0.0277778
        k(    7) = (   0.0000000   0.1924501   0.2505875), wk =   0.0277778
        k(    8) = (   0.0000000   0.1924501  -0.3758813), wk =   0.0277778
        k(    9) = (   0.0000000   0.3849002   0.0000000), wk =   0.0277778
        k(   10) = (   0.0000000   0.3849002   0.1252938), wk =   0.0277778
        k(   11) = (   0.0000000   0.3849002   0.2505875), wk =   0.0277778
        k(   12) = (   0.0000000   0.3849002  -0.3758813), wk =   0.0277778
        k(   13) = (   0.0000000  -0.5773503   0.0000000), wk =   0.0138889
        k(   14) = (   0.0000000  -0.5773503   0.1252938), wk =   0.0277778
        k(   15) = (   0.0000000  -0.5773503   0.2505875), wk =   0.0277778
        k(   16) = (   0.0000000  -0.5773503  -0.3758813), wk =   0.0138889
        k(   17) = (   0.1666667   0.2886752   0.0000000), wk =   0.0277778
        k(   18) = (   0.1666667   0.2886752   0.1252938), wk =   0.0555556
        k(   19) = (   0.1666667   0.2886752   0.2505875), wk =   0.0555556
        k(   20) = (   0.1666667   0.2886752  -0.3758813), wk =   0.0277778
        k(   21) = (   0.1666667   0.4811253   0.0000000), wk =   0.0555556
        k(   22) = (   0.1666667   0.4811253   0.1252938), wk =   0.0555556
        k(   23) = (   0.1666667   0.4811253   0.2505875), wk =   0.0555556
        k(   24) = (   0.1666667   0.4811253  -0.3758813), wk =   0.0555556
        k(   25) = (   0.3333333   0.5773503   0.0000000), wk =   0.0092593
        k(   26) = (   0.3333333   0.5773503   0.1252938), wk =   0.0185185
        k(   27) = (   0.3333333   0.5773503   0.2505875), wk =   0.0185185
        k(   28) = (   0.3333333   0.5773503  -0.3758813), wk =   0.0092593
        k(   29) = (   0.0000000   0.1924501  -0.1252938), wk =   0.0277778
        k(   30) = (   0.0000000   0.1924501  -0.2505875), wk =   0.0277778
        k(   31) = (   0.0000000   0.3849002  -0.1252938), wk =   0.0277778
        k(   32) = (   0.0000000   0.3849002  -0.2505875), wk =   0.0277778
        k(   33) = (  -0.1666667   0.4811253  -0.1252938), wk =   0.0555556
        k(   34) = (  -0.1666667   0.4811253  -0.2505875), wk =   0.0555556

                       cryst. coord.
        k(    1) = (   0.0000000   0.0000000   0.0000000), wk =   0.0046296
        k(    2) = (   0.0000000   0.0000000   0.1666667), wk =   0.0092593
        k(    3) = (   0.0000000   0.0000000   0.3333333), wk =   0.0092593
        k(    4) = (   0.0000000   0.0000000  -0.5000000), wk =   0.0046296
        k(    5) = (   0.0000000   0.1666667   0.0000000), wk =   0.0277778
        k(    6) = (   0.0000000   0.1666667   0.1666667), wk =   0.0277778
        k(    7) = (   0.0000000   0.1666667   0.3333333), wk =   0.0277778
        k(    8) = (   0.0000000   0.1666667  -0.5000000), wk =   0.0277778
        k(    9) = (   0.0000000   0.3333333   0.0000000), wk =   0.0277778
        k(   10) = (   0.0000000   0.3333333   0.1666667), wk =   0.0277778
        k(   11) = (   0.0000000   0.3333333   0.3333333), wk =   0.0277778
        k(   12) = (   0.0000000   0.3333333  -0.5000000), wk =   0.0277778
        k(   13) = (   0.0000000  -0.5000000   0.0000000), wk =   0.0138889
        k(   14) = (   0.0000000  -0.5000000   0.1666667), wk =   0.0277778
        k(   15) = (   0.0000000  -0.5000000   0.3333333), wk =   0.0277778
        k(   16) = (   0.0000000  -0.5000000  -0.5000000), wk =   0.0138889
        k(   17) = (   0.1666667   0.1666667   0.0000000), wk =   0.0277778
        k(   18) = (   0.1666667   0.1666667   0.1666667), wk =   0.0555556
        k(   19) = (   0.1666667   0.1666667   0.3333333), wk =   0.0555556
        k(   20) = (   0.1666667   0.1666667  -0.5000000), wk =   0.0277778
        k(   21) = (   0.1666667   0.3333333   0.0000000), wk =   0.0555556
        k(   22) = (   0.1666667   0.3333333   0.1666667), wk =   0.0555556
        k(   23) = (   0.1666667   0.3333333   0.3333333), wk =   0.0555556
        k(   24) = (   0.1666667   0.3333333  -0.5000000), wk =   0.0555556
        k(   25) = (   0.3333333   0.3333333   0.0000000), wk =   0.0092593
        k(   26) = (   0.3333333   0.3333333   0.1666667), wk =   0.0185185
        k(   27) = (   0.3333333   0.3333333   0.3333333), wk =   0.0185185
        k(   28) = (   0.3333333   0.3333333  -0.5000000), wk =   0.0092593
        k(   29) = (   0.0000000   0.1666667  -0.1666667), wk =   0.0277778
        k(   30) = (   0.0000000   0.1666667  -0.3333333), wk =   0.0277778
        k(   31) = (   0.0000000   0.3333333  -0.1666667), wk =   0.0277778
        k(   32) = (   0.0000000   0.3333333  -0.3333333), wk =   0.0277778
        k(   33) = (  -0.1666667   0.5000000  -0.1666667), wk =   0.0555556
        k(   34) = (  -0.1666667   0.5000000  -0.3333333), wk =   0.0555556

     Dense  grid:    60415 G-vectors     FFT dimensions: (  48,  48,  72)

     Smooth grid:    32805 G-vectors     FFT dimensions: (  40,  40,  54)

     Dynamical RAM for                 wfc:       1.63 MB

     Dynamical RAM for     wfc (w. buffer):      57.07 MB

     Dynamical RAM for           str. fact:       0.46 MB

     Dynamical RAM for           local pot:       0.00 MB

     Dynamical RAM for          nlocal pot:       3.20 MB

     Dynamical RAM for                qrad:       3.64 MB

     Dynamical RAM for          rho,v,vnew:      13.12 MB

     Dynamical RAM for               rhoin:       4.38 MB

     Dynamical RAM for            rho*nmix:      29.50 MB

     Dynamical RAM for           G-vectors:       1.85 MB

     Dynamical RAM for          h,s,v(r/c):       0.12 MB

     Dynamical RAM for          <psi|beta>:       0.08 MB

     Dynamical RAM for                 psi:       3.26 MB

     Dynamical RAM for                hpsi:       3.26 MB

     Dynamical RAM for                spsi:       3.26 MB

     Dynamical RAM for      wfcinit/wfcrot:       2.46 MB

     Dynamical RAM for           addusdens:     282.55 MB

     Dynamical RAM for         addusstress:     289.47 MB

     Estimated static dynamical RAM per process >      89.71 MB

     Estimated max dynamical RAM per process >     408.68 MB

     Estimated total dynamical RAM >     817.36 MB

     Initial potential from superposition of free atoms

     starting charge      17.9993, renormalised to      18.0000
     Starting wfcs are   24 randomized atomic wfcs +    2 random wfcs

     total cpu time spent up to now is        2.7 secs

     per-process dynamical memory:   106.3 Mb

     Self-consistent Calculation

     iteration #  1     ecut=    50.00 Ry     beta= 0.40
     Davidson diagonalization with overlap

---- Real-time Memory Report at c_bands before calling an iterative solver
           353 MiB given to the printing process from OS
           105 MiB allocation reported by mallinfo(arena+hblkhd)
           724 MiB available memory on the node where the printing process lives
------------------
     c_bands:  2 eigenvalues not converged
     c_bands:  2 eigenvalues not converged
     c_bands:  2 eigenvalues not converged
     c_bands:  1 eigenvalues not converged
     c_bands:  2 eigenvalues not converged
     c_bands:  2 eigenvalues not converged
     c_bands:  2 eigenvalues not converged
     c_bands:  2 eigenvalues not converged
     c_bands:  2 eigenvalues not converged
     c_bands:  2 eigenvalues not converged
     c_bands:  2 eigenvalues not converged
     c_bands:  1 eigenvalues not converged
     c_bands:  2 eigenvalues not converged
     ethr =  1.00E-05,  avg # of iterations = 18.5

     total cpu time spent up to now is       19.3 secs

     total energy              =     -85.64361290 Ry
     estimated scf accuracy    <       0.01526104 Ry

     iteration #  2     ecut=    50.00 Ry     beta= 0.40
     Davidson diagonalization with overlap

---- Real-time Memory Report at c_bands before calling an iterative solver
           434 MiB given to the printing process from OS
           125 MiB allocation reported by mallinfo(arena+hblkhd)
           789 MiB available memory on the node where the printing process lives
------------------
     ethr =  8.48E-05,  avg # of iterations =  1.0

     total cpu time spent up to now is       24.3 secs

     total energy              =     -85.64341348 Ry
     estimated scf accuracy    <       0.00449184 Ry

     iteration #  3     ecut=    50.00 Ry     beta= 0.40
     Davidson diagonalization with overlap

---- Real-time Memory Report at c_bands before calling an iterative solver
           436 MiB given to the printing process from OS
           127 MiB allocation reported by mallinfo(arena+hblkhd)
           796 MiB available memory on the node where the printing process lives
------------------
     ethr =  2.50E-05,  avg # of iterations =  1.1

     total cpu time spent up to now is       29.4 secs

     total energy              =     -85.64365474 Ry
     estimated scf accuracy    <       0.00018578 Ry

     iteration #  4     ecut=    50.00 Ry     beta= 0.40
     Davidson diagonalization with overlap

---- Real-time Memory Report at c_bands before calling an iterative solver
           438 MiB given to the printing process from OS
           129 MiB allocation reported by mallinfo(arena+hblkhd)
           792 MiB available memory on the node where the printing process lives
------------------
     ethr =  1.03E-06,  avg # of iterations =  5.6

     total cpu time spent up to now is       36.4 secs

     total energy              =     -85.64371903 Ry
     estimated scf accuracy    <       0.00000656 Ry

     iteration #  5     ecut=    50.00 Ry     beta= 0.40
     Davidson diagonalization with overlap

---- Real-time Memory Report at c_bands before calling an iterative solver
           440 MiB given to the printing process from OS
           131 MiB allocation reported by mallinfo(arena+hblkhd)
           796 MiB available memory on the node where the printing process lives
------------------
     ethr =  3.64E-08,  avg # of iterations =  4.0

     total cpu time spent up to now is       43.5 secs

     total energy              =     -85.64372272 Ry
     estimated scf accuracy    <       0.00000201 Ry

     iteration #  6     ecut=    50.00 Ry     beta= 0.40
     Davidson diagonalization with overlap

---- Real-time Memory Report at c_bands before calling an iterative solver
           442 MiB given to the printing process from OS
           133 MiB allocation reported by mallinfo(arena+hblkhd)
           793 MiB available memory on the node where the printing process lives
------------------
     ethr =  1.12E-08,  avg # of iterations =  2.1

     total cpu time spent up to now is       49.3 secs

     total energy              =     -85.64372299 Ry
     estimated scf accuracy    <       0.00000012 Ry

     iteration #  7     ecut=    50.00 Ry     beta= 0.40
     Davidson diagonalization with overlap

---- Real-time Memory Report at c_bands before calling an iterative solver
           444 MiB given to the printing process from OS
           135 MiB allocation reported by mallinfo(arena+hblkhd)
           796 MiB available memory on the node where the printing process lives
------------------
     ethr =  6.68E-10,  avg # of iterations =  2.9

     total cpu time spent up to now is       55.2 secs

     total energy              =     -85.64372303 Ry
     estimated scf accuracy    <       0.00000002 Ry

     iteration #  8     ecut=    50.00 Ry     beta= 0.40
     Davidson diagonalization with overlap

---- Real-time Memory Report at c_bands before calling an iterative solver
           446 MiB given to the printing process from OS
           137 MiB allocation reported by mallinfo(arena+hblkhd)
           793 MiB available memory on the node where the printing process lives
------------------
     ethr =  1.04E-10,  avg # of iterations =  3.1

     total cpu time spent up to now is       61.3 secs

     End of self-consistent calculation

          k = 0.0000 0.0000 0.0000 (  4117 PWs)   bands (ev):

    -7.6611  -7.6611  -4.3293  -4.3293  -4.3279  -4.3279   2.7408   2.7408
     2.9405   2.9405   3.3743   3.3743   4.3281   4.3281   4.3755   4.3755
     5.2384   5.2384   6.6546   6.6546   7.2723   7.2723   7.8041   7.8041
    10.9676  10.9683

     occupation numbers 
     1.0000   1.0000   1.0000   1.0000   1.0000   1.0000   1.0000   1.0000
     1.0000   1.0000   1.0000   1.0000   1.0000   1.0000   1.0000   1.0000
     1.0000   1.0000   0.0000   0.0000   0.0000   0.0000   0.0000   0.0000
     0.0000   0.0000

          k = 0.0000 0.0000 0.1253 (  4141 PWs)   bands (ev):

    -7.5607  -7.5595  -5.2680  -5.2650  -3.3614  -3.3599   2.5222   2.5234
     2.9161   3.0940   3.1818   3.6293   4.2879   4.3894   4.4656   4.5250
     5.1537   5.2605   6.5337   6.5603   7.0415   7.1273   7.5225   7.5384
    10.6406  10.6784

     occupation numbers 
     1.0000   1.0000   1.0000   1.0000   1.0000   1.0000   1.0000   1.0000
     1.0000   1.0000   1.0000   1.0000   1.0000   1.0000   1.0000   1.0000
     1.0000   1.0000   0.0000   0.0000   0.0000   0.0000   0.0000   0.0000
     0.0000   0.0000

          k = 0.0000 0.0000 0.2506 (  4117 PWs)   bands (ev):

    -7.2603  -7.2580  -6.0949  -6.0915  -2.5333  -2.5298   2.0474   2.0893
     3.0678   3.1674   3.2358   3.6514   4.4066   4.5508   4.5625   4.8030
     4.9958   5.2132   6.4082   6.4234   6.6777   6.8518   6.9824   7.0580
    10.2007  10.2190

     occupation numbers 
     1.0000   1.0000   1.0000   1.0000   1.0000   1.0000   1.0000   1.0000
     1.0000   1.0000   1.0000   1.0000   1.0000   1.0000   1.0000   1.0000
     1.0000   1.0000   0.0033   0.0020   0.0000   0.0000   0.0000   0.0000
     0.0000   0.0000

          k = 0.0000 0.0000-0.3759 (  4142 PWs)   bands (ev):

    -6.7671  -6.7671  -6.7640  -6.7640  -2.1714  -2.1714   1.8231   1.8231
     3.1656   3.1656   3.4535   3.4535   4.5476   4.5476   4.7809   4.7809
     5.0614   5.0614   6.4479   6.4479   6.5516   6.5516   6.7782   6.7782
    10.0200  10.0200

     occupation numbers 
     1.0000   1.0000   1.0000   1.0000   1.0000   1.0000   1.0000   1.0000
     1.0000   1.0000   1.0000   1.0000   1.0000   1.0000   1.0000   1.0000
     1.0000   1.0000   0.0009   0.0009   0.0000   0.0000   0.0000   0.0000
     0.0000   0.0000

          k = 0.0000 0.1925 0.0000 (  4127 PWs)   bands (ev):

    -7.4810  -7.4807  -4.3949  -4.3892  -4.2776  -4.2734   1.7460   1.8422
     2.3121   2.4615   2.8069   3.0426   4.5517   4.7226   4.9314   5.0201
     5.2051   5.3192   6.7545   6.8360   6.9908   7.0766   7.5566   7.6571
    10.4003  10.4405

     occupation numbers 
     1.0000   1.0000   1.0000   1.0000   1.0000   1.0000   1.0000   1.0000
     1.0000   1.0000   1.0000   1.0000   1.0000   1.0000   1.0000   1.0000
     1.0000   1.0000   0.0000   0.0000   0.0000   0.0000   0.0000   0.0000
     0.0000   0.0000

          k = 0.0000 0.1925 0.1253 (  4136 PWs)   bands (ev):

    -7.3819  -7.3805  -5.2088  -5.2056  -3.4617  -3.4589   1.8416   1.9170
     2.0092   2.1406   2.9042   3.0920   4.6568   4.7884   4.9676   5.1633
     5.3557   5.4501   6.6034   6.6309   6.7826   6.9210   7.4235   7.4842
     9.9961  10.0048

     occupation numbers 
     1.0000   1.0000   1.0000   1.0000   1.0000   1.0000   1.0000   1.0000
     1.0000   1.0000   1.0000   1.0000   1.0000   1.0000   1.0000   1.0000
     1.0000   1.0000   0.0000   0.0000   0.0000   0.0000   0.0000   0.0000
     0.0000   0.0000

          k = 0.0000 0.1925 0.2506 (  4130 PWs)   bands (ev):

    -7.0890  -7.0862  -5.9809  -5.9769  -2.7988  -2.7944   1.6983   1.7909
     2.1843   2.3584   3.0067   3.1877   4.4554   4.5287   4.6679   4.7722
     4.9389   5.0398   6.6535   6.7633   6.9829   7.1363   7.6946   7.7079
    10.0227  10.0493

     occupation numbers 
     1.0000   1.0000   1.0000   1.0000   1.0000   1.0000   1.0000   1.0000
     1.0000   1.0000   1.0000   1.0000   1.0000   1.0000   1.0000   1.0000
     1.0000   1.0000   0.0000   0.0000   0.0000   0.0000   0.0000   0.0000
     0.0000   0.0000

          k = 0.0000 0.1925-0.3759 (  4110 PWs)   bands (ev):

    -6.6337  -6.6319  -6.5950  -6.5936  -2.5562  -2.5554   1.6656   1.7463
     2.6428   2.8857   2.9601   3.1319   3.9266   4.1573   4.2604   4.4135
     4.6186   4.8162   6.7857   6.9286   7.3567   7.4918   7.8967   7.9027
    10.4425  10.4649

     occupation numbers 
     1.0000   1.0000   1.0000   1.0000   1.0000   1.0000   1.0000   1.0000
     1.0000   1.0000   1.0000   1.0000   1.0000   1.0000   1.0000   1.0000
     1.0000   1.0000   0.0000   0.0000   0.0000   0.0000   0.0000   0.0000
     0.0000   0.0000

          k = 0.0000 0.3849 0.0000 (  4110 PWs)   bands (ev):

    -7.0142  -7.0136  -4.7035  -4.6981  -4.1581  -4.1542   1.0448   1.1010
     1.6251   1.7872   2.3286   2.5432   3.5194   3.5944   4.8364   4.9861
     5.0709   5.2176   6.8685   6.9746   7.1024   7.1409   8.7832   8.8001
     9.3841   9.4133

     occupation numbers 
     1.0000   1.0000   1.0000   1.0000   1.0000   1.0000   1.0000   1.0000
     1.0000   1.0000   1.0000   1.0000   1.0000   1.0000   1.0000   1.0000
     1.0000   1.0000   0.0000   0.0000   0.0000   0.0000   0.0000   0.0000
     0.0000   0.0000

          k = 0.0000 0.3849 0.1253 (  4102 PWs)   bands (ev):

    -6.9177  -6.9152  -5.1809  -5.1765  -3.7226  -3.7162   0.8913   0.9194
     1.3799   1.4787   2.4472   2.5852   4.2358   4.4908   4.7130   4.9912
     5.0057   5.2054   6.8008   6.8618   7.2896   7.3928   7.9017   7.9289
     9.3161   9.3773

     occupation numbers 
     1.0000   1.0000   1.0000   1.0000   1.0000   1.0000   1.0000   1.0000
     1.0000   1.0000   1.0000   1.0000   1.0000   1.0000   1.0000   1.0000
     1.0000   1.0000   0.0000   0.0000   0.0000   0.0000   0.0000   0.0000
     0.0000   0.0000

          k = 0.0000 0.3849 0.2506 (  4113 PWs)   bands (ev):

    -6.6494  -6.6445  -5.7509  -5.7446  -3.4179  -3.4116   0.7259   0.7702
     1.6198   1.7376   2.5932   2.7078   3.9633   4.1247   4.3482   4.4494
     5.7736   5.8265   6.6670   6.7365   7.3133   7.4472   7.8030   8.1425
     9.7954   9.9328

     occupation numbers 
     1.0000   1.0000   1.0000   1.0000   1.0000   1.0000   1.0000   1.0000
     1.0000   1.0000   1.0000   1.0000   1.0000   1.0000   1.0000   1.0000
     0.9999   0.9996   0.0000   0.0000   0.0000   0.0000   0.0000   0.0000
     0.0000   0.0000

          k = 0.0000 0.3849-0.3759 (  4110 PWs)   bands (ev):

    -6.3337  -6.3318  -6.1482  -6.1462  -3.3855  -3.3839   0.8166   0.8582
     2.1271   2.2517   2.4896   2.6050   3.7115   3.7770   4.0034   4.0828
     4.9612   5.0585   7.2265   7.4276   7.8955   8.0029   8.2891   8.5028
    10.4639  10.6140

     occupation numbers 
     1.0000   1.0000   1.0000   1.0000   1.0000   1.0000   1.0000   1.0000
     1.0000   1.0000   1.0000   1.0000   1.0000   1.0000   1.0000   1.0000
     1.0000   1.0000   0.0000   0.0000   0.0000   0.0000   0.0000   0.0000
     0.0000   0.0000

          k = 0.0000-0.5774 0.0000 (  4094 PWs)   bands (ev):

    -6.6636  -6.6636  -5.0171  -5.0171  -4.0896  -4.0896   1.0214   1.0214
     1.5182   1.5182   2.3531   2.3531   2.5616   2.5616   4.8257   4.8257
     5.1117   5.1117   6.9211   6.9211   7.0391   7.0391   9.0074   9.0074
     9.7327   9.7327

     occupation numbers 
     1.0000   1.0000   1.0000   1.0000   1.0000   1.0000   1.0000   1.0000
     1.0000   1.0000   1.0000   1.0000   1.0000   1.0000   1.0000   1.0000
     1.0000   1.0000   0.0000   0.0000   0.0000   0.0000   0.0000   0.0000
     0.0000   0.0000

          k = 0.0000-0.5774 0.1253 (  4094 PWs)   bands (ev):

    -6.5891  -6.5854  -5.1790  -5.1747  -4.0380  -4.0299   0.9792   1.0188
     1.1858   1.2958   2.2839   2.4427   3.1912   3.3704   4.4611   4.6295
     4.7805   4.8632   6.9141   6.9562   7.4992   7.7203   9.1772   9.1980
     9.3614   9.4740

     occupation numbers 
     1.0000   1.0000   1.0000   1.0000   1.0000   1.0000   1.0000   1.0000
     1.0000   1.0000   1.0000   1.0000   1.0000   1.0000   1.0000   1.0000
     1.0000   1.0000   0.0000   0.0000   0.0000   0.0000   0.0000   0.0000
     0.0000   0.0000

          k = 0.0000-0.5774 0.2506 (  4094 PWs)   bands (ev):

    -6.3768  -6.3703  -5.5357  -5.5280  -3.9437  -3.9366   0.4631   0.4935
     1.6296   1.7381   2.3964   2.5108   3.6178   3.8940   4.0775   4.2696
     4.7647   4.9582   7.2692   7.3606   7.8826   7.9585   8.2732   8.6048
    10.0883  10.3060

     occupation numbers 
     1.0000   1.0000   1.0000   1.0000   1.0000   1.0000   1.0000   1.0000
     1.0000   1.0000   1.0000   1.0000   1.0000   1.0000   1.0000   1.0000
     1.0000   1.0000   0.0000   0.0000   0.0000   0.0000   0.0000   0.0000
     0.0000   0.0000

          k = 0.0000-0.5774-0.3759 (  4088 PWs)   bands (ev):

    -6.1598  -6.1598  -5.8081  -5.8081  -3.8976  -3.8976   0.2777   0.2777
     2.1569   2.1569   2.2866   2.2866   3.5734   3.5734   3.9345   3.9345
     5.7928   5.7928   6.7536   6.7536   7.8045   7.8045   8.6597   8.6597
    10.5629  10.5629

     occupation numbers 
     1.0000   1.0000   1.0000   1.0000   1.0000   1.0000   1.0000   1.0000
     1.0000   1.0000   1.0000   1.0000   1.0000   1.0000   1.0000   1.0000
     0.9999   0.9999   0.0000   0.0000   0.0000   0.0000   0.0000   0.0000
     0.0000   0.0000

          k = 0.1667 0.2887 0.0000 (  4115 PWs)   bands (ev):

    -7.1532  -7.1525  -4.5280  -4.5178  -4.2650  -4.2564   1.2362   1.3509
     1.5030   1.6121   2.8655   3.0290   4.0367   4.1924   4.3236   4.3932
     4.7932   4.8416   7.5077   7.5451   7.5968   7.6318   7.9562   7.9737
    10.2672  10.2735

     occupation numbers 
     1.0000   1.0000   1.0000   1.0000   1.0000   1.0000   1.0000   1.0000
     1.0000   1.0000   1.0000   1.0000   1.0000   1.0000   1.0000   1.0000
     1.0000   1.0000   0.0000   0.0000   0.0000   0.0000   0.0000   0.0000
     0.0000   0.0000

          k = 0.1667 0.2887 0.1253 (  4107 PWs)   bands (ev):

    -7.0617  -7.0596  -5.1036  -5.0996  -3.7545  -3.7492   1.2447   1.3089
     1.6677   1.7262   2.7734   2.9098   3.6021   3.6963   4.3723   4.4899
     5.4196   5.4859   6.8738   6.9434   7.6463   7.6888   8.2610   8.2932
    10.2414  10.2720

     occupation numbers 
     1.0000   1.0000   1.0000   1.0000   1.0000   1.0000   1.0000   1.0000
     1.0000   1.0000   1.0000   1.0000   1.0000   1.0000   1.0000   1.0000
     1.0000   1.0000   0.0000   0.0000   0.0000   0.0000   0.0000   0.0000
     0.0000   0.0000

          k = 0.1667 0.2887 0.2506 (  4107 PWs)   bands (ev):

    -6.7909  -6.7870  -5.7705  -5.7653  -3.3118  -3.3059   1.2550   1.3482
     1.7613   1.8963   2.6099   2.7253   3.2978   3.4788   4.8282   4.9551
     5.1699   5.2883   6.8118   6.8656   7.6470   7.6583   8.4466   8.5008
    10.4259  10.4466

     occupation numbers 
     1.0000   1.0000   1.0000   1.0000   1.0000   1.0000   1.0000   1.0000
     1.0000   1.0000   1.0000   1.0000   1.0000   1.0000   1.0000   1.0000
     1.0000   1.0000   0.0000   0.0000   0.0000   0.0000   0.0000   0.0000
     0.0000   0.0000

          k = 0.1667 0.2887-0.3759 (  4128 PWs)   bands (ev):

    -6.3977  -6.3947  -6.3007  -6.2976  -3.1446  -3.1430   1.2325   1.3295
     2.0562   2.0688   2.1826   2.2850   3.8703   4.0311   4.4345   4.4681
     5.1394   5.2245   6.7269   6.8061   8.1075   8.1238   8.3140   8.3353
    10.6243  10.6649

     occupation numbers 
     1.0000   1.0000   1.0000   1.0000   1.0000   1.0000   1.0000   1.0000
     1.0000   1.0000   1.0000   1.0000   1.0000   1.0000   1.0000   1.0000
     1.0000   1.0000   0.0000   0.0000   0.0000   0.0000   0.0000   0.0000
     0.0000   0.0000

          k = 0.1667 0.4811 0.0000 (  4114 PWs)   bands (ev):

    -6.6899  -6.6891  -4.8345  -4.8283  -4.2813  -4.2759   1.0924   1.1649
     1.3652   1.4740   2.4399   2.6381   2.9389   3.0609   3.9709   4.0593
     4.2136   4.2541   7.7482   7.7850   8.1056   8.1191   9.2323   9.2422
     9.8687   9.8858

     occupation numbers 
     1.0000   1.0000   1.0000   1.0000   1.0000   1.0000   1.0000   1.0000
     1.0000   1.0000   1.0000   1.0000   1.0000   1.0000   1.0000   1.0000
     1.0000   1.0000   0.0000   0.0000   0.0000   0.0000   0.0000   0.0000
     0.0000   0.0000

          k = 0.1667 0.4811 0.1253 (  4105 PWs)   bands (ev):

    -6.6061  -6.6024  -5.1360  -5.1307  -4.0527  -4.0440   0.8253   0.8583
     1.3259   1.4277   2.3631   2.4944   3.1679   3.3357   4.0408   4.1731
     4.8645   4.9852   7.3007   7.3648   8.3323   8.3645   8.4839   8.5532
    10.0129  10.0679

     occupation numbers 
     1.0000   1.0000   1.0000   1.0000   1.0000   1.0000   1.0000   1.0000
     1.0000   1.0000   1.0000   1.0000   1.0000   1.0000   1.0000   1.0000
     1.0000   1.0000   0.0000   0.0000   0.0000   0.0000   0.0000   0.0000
     0.0000   0.0000

          k = 0.1667 0.4811 0.2506 (  4102 PWs)   bands (ev):

    -6.3724  -6.3655  -5.5776  -5.5694  -3.8542  -3.8464   0.5594   0.6021
     1.3049   1.3805   2.0978   2.1714   3.4163   3.5434   4.9757   5.1826
     5.5434   5.7984   6.6731   6.7351   7.4351   7.5056   8.5112   8.6224
    10.3334  10.4115

     occupation numbers 
     1.0000   1.0000   1.0000   1.0000   1.0000   1.0000   1.0000   1.0000
     1.0000   1.0000   1.0000   1.0000   1.0000   1.0000   1.0000   1.0000
     1.0000   0.9999   0.0000   0.0000   0.0000   0.0000   0.0000   0.0000
     0.0000   0.0000

          k = 0.1667 0.4811-0.3759 (  4100 PWs)   bands (ev):

    -6.1114  -6.1091  -5.8967  -5.8937  -3.8096  -3.8079   0.5460   0.5736
     1.4858   1.5151   1.6289   1.7114   4.2584   4.3614   4.7520   4.7918
     5.5640   5.6380   6.8733   6.9762   7.5541   7.6182   8.1868   8.2346
    10.8109  10.8460

     occupation numbers 
     1.0000   1.0000   1.0000   1.0000   1.0000   1.0000   1.0000   1.0000
     1.0000   1.0000   1.0000   1.0000   1.0000   1.0000   1.0000   1.0000
     1.0000   1.0000   0.0000   0.0000   0.0000   0.0000   0.0000   0.0000
     0.0000   0.0000

          k = 0.3333 0.5774 0.0000 (  4116 PWs)   bands (ev):

    -6.4952  -6.4952  -4.6578  -4.6547  -4.6547  -4.6431   1.2356   1.4228
     1.4228   1.4377   2.7641   2.7641   2.8608   3.0619   3.0619   3.0911
     3.4478   3.4478   8.7400   8.7811   8.9471   8.9471   9.1945   9.1945
    10.8672  10.8673

     occupation numbers 
     1.0000   1.0000   1.0000   1.0000   1.0000   1.0000   1.0000   1.0000
     1.0000   1.0000   1.0000   1.0000   1.0000   1.0000   1.0000   1.0000
     1.0000   1.0000   0.0000   0.0000   0.0000   0.0000   0.0000   0.0000
     0.0000   0.0000

          k = 0.3333 0.5774 0.1253 (  4125 PWs)   bands (ev):

    -6.4228  -6.4181  -5.0486  -5.0449  -4.3249  -4.3147   0.9381   0.9526
     1.3190   1.4851   2.1305   2.2387   2.8536   3.0379   3.8592   3.9007
     4.2417   4.4355   8.2102   8.3660   8.6743   8.7945   8.8043   8.8345
    11.0616  11.1102

     occupation numbers 
     1.0000   1.0000   1.0000   1.0000   1.0000   1.0000   1.0000   1.0000
     1.0000   1.0000   1.0000   1.0000   1.0000   1.0000   1.0000   1.0000
     1.0000   1.0000   0.0000   0.0000   0.0000   0.0000   0.0000   0.0000
     0.0000   0.0000

          k = 0.3333 0.5774 0.2506 (  4125 PWs)   bands (ev):

    -6.2089  -6.2004  -5.4741  -5.4649  -4.0875  -4.0787   0.7512   0.8054
     0.9178   0.9774   1.3973   1.5088   3.8976   4.0304   4.9471   5.1003
     5.2935   5.5847   7.0908   7.2048   7.9040   7.9953   8.1092   8.1389
    11.6940  11.7053

     occupation numbers 
     1.0000   1.0000   1.0000   1.0000   1.0000   1.0000   1.0000   1.0000
     1.0000   1.0000   1.0000   1.0000   1.0000   1.0000   1.0000   1.0000
     1.0000   1.0000   0.0000   0.0000   0.0000   0.0000   0.0000   0.0000
     0.0000   0.0000

          k = 0.3333 0.5774-0.3759 (  4116 PWs)   bands (ev):

    -5.8786  -5.8786  -5.8717  -5.8645  -3.9940  -3.9940   0.7403   0.7403
     0.8904   0.9437   1.0170   1.0170   4.8294   4.8294   5.8020   5.8020
     6.0509   6.1670   6.1670   6.1920   7.3173   7.3846   7.5473   7.5473
    11.8960  11.8962

     occupation numbers 
     1.0000   1.0000   1.0000   1.0000   1.0000   1.0000   1.0000   1.0000
     1.0000   1.0000   1.0000   1.0000   1.0000   1.0000   0.9998   0.9998
     0.8411   0.4177   0.4177   0.3202   0.0000   0.0000   0.0000   0.0000
     0.0000   0.0000

          k = 0.0000 0.1925-0.1253 (  4136 PWs)   bands (ev):

    -7.3846  -7.3831  -5.1810  -5.1779  -3.5190  -3.5162   1.8120   1.8998
     2.5328   2.7271   2.8094   3.1688   4.2565   4.3081   4.4002   4.5784
     4.8254   5.0137   6.9991   7.0968   7.3959   7.5205   7.8000   7.8973
    10.6905  10.7316

     occupation numbers 
     1.0000   1.0000   1.0000   1.0000   1.0000   1.0000   1.0000   1.0000
     1.0000   1.0000   1.0000   1.0000   1.0000   1.0000   1.0000   1.0000
     1.0000   1.0000   0.0000   0.0000   0.0000   0.0000   0.0000   0.0000
     0.0000   0.0000

          k = 0.0000 0.1925-0.2506 (  4130 PWs)   bands (ev):

    -7.0948  -7.0921  -5.9636  -5.9597  -2.8498  -2.8454   1.8234   1.8922
     2.6547   2.8167   3.0700   3.3149   3.7407   3.9636   4.1742   4.2623
     4.6459   4.7976   7.0225   7.0647   7.6570   7.7502   7.8143   7.8808
    10.6314  10.6502

     occupation numbers 
     1.0000   1.0000   1.0000   1.0000   1.0000   1.0000   1.0000   1.0000
     1.0000   1.0000   1.0000   1.0000   1.0000   1.0000   1.0000   1.0000
     1.0000   1.0000   0.0000   0.0000   0.0000   0.0000   0.0000   0.0000
     0.0000   0.0000

          k = 0.0000 0.3849-0.1253 (  4102 PWs)   bands (ev):

    -6.9353  -6.9329  -5.0193  -5.0154  -3.9774  -3.9712   1.3197   1.4333
     1.8143   1.9344   2.5457   2.7825   2.8008   3.0303   4.3632   4.6155
     4.8056   4.9694   6.9932   7.0920   7.6894   7.9244   9.1869   9.2000
     9.9707  10.0843

     occupation numbers 
     1.0000   1.0000   1.0000   1.0000   1.0000   1.0000   1.0000   1.0000
     1.0000   1.0000   1.0000   1.0000   1.0000   1.0000   1.0000   1.0000
     1.0000   1.0000   0.0000   0.0000   0.0000   0.0000   0.0000   0.0000
     0.0000   0.0000

          k = 0.0000 0.3849-0.2506 (  4113 PWs)   bands (ev):

    -6.6875  -6.6834  -5.6389  -5.6336  -3.6061  -3.5999   1.1954   1.2696
     1.9576   2.1173   2.5573   2.7014   3.3006   3.6617   3.9136   4.0795
     4.4131   4.6363   7.4040   7.4576   8.2385   8.3971   8.8740   8.8885
    10.5989  10.7108

     occupation numbers 
     1.0000   1.0000   1.0000   1.0000   1.0000   1.0000   1.0000   1.0000
     1.0000   1.0000   1.0000   1.0000   1.0000   1.0000   1.0000   1.0000
     1.0000   1.0000   0.0000   0.0000   0.0000   0.0000   0.0000   0.0000
     0.0000   0.0000

          k =-0.1667 0.4811-0.1253 (  4105 PWs)   bands (ev):

    -6.6172  -6.6136  -5.0497  -5.0448  -4.1663  -4.1573   1.0175   1.0694
     1.4171   1.4905   2.3947   2.5583   2.8118   3.1853   3.6414   3.8344
     5.0930   5.1566   7.1539   7.2133   8.2243   8.2760   9.2855   9.3095
    10.1232  10.1790

     occupation numbers 
     1.0000   1.0000   1.0000   1.0000   1.0000   1.0000   1.0000   1.0000
     1.0000   1.0000   1.0000   1.0000   1.0000   1.0000   1.0000   1.0000
     1.0000   1.0000   0.0000   0.0000   0.0000   0.0000   0.0000   0.0000
     0.0000   0.0000

          k =-0.1667 0.4811-0.2506 (  4102 PWs)   bands (ev):

    -6.3960  -6.3898  -5.5105  -5.5032  -3.9366  -3.9288   0.8098   0.8831
     1.2046   1.2715   2.0528   2.1276   3.5285   3.7382   4.4389   4.5791
     5.3453   5.4763   6.9339   6.9647   8.0899   8.1566   8.5795   8.6219
    10.5943  10.6397

     occupation numbers 
     1.0000   1.0000   1.0000   1.0000   1.0000   1.0000   1.0000   1.0000
     1.0000   1.0000   1.0000   1.0000   1.0000   1.0000   1.0000   1.0000
     1.0000   1.0000   0.0000   0.0000   0.0000   0.0000   0.0000   0.0000
     0.0000   0.0000

     the Fermi energy is     6.1470 ev

!    total energy              =     -85.64372303 Ry
     estimated scf accuracy    <          4.2E-09 Ry
     smearing contrib. (-TS)   =      -0.00009244 Ry
     internal energy E=F+TS    =     -85.64363059 Ry

     The total energy is F=E-TS. E is the sum of the following terms:
     one-electron contribution =      10.16526094 Ry
     hartree contribution      =       3.37467370 Ry
     xc contribution           =     -49.70180923 Ry
     ewald contribution        =     -49.48175600 Ry

     convergence has been achieved in   8 iterations


     Computing stress (Cartesian axis) and pressure

          total   stress  (Ry/bohr**3)                   (kbar)     P=       24.02
   0.00014071   0.00000000  -0.00000000           20.70        0.00       -0.00
   0.00000000   0.00014071  -0.00000000            0.00       20.70       -0.00
  -0.00000000  -0.00000000   0.00020845           -0.00       -0.00       30.66

     kinetic stress (kbar)   2339.62      0.00      0.00
                                0.00   2339.62     -0.00
                                0.00     -0.00   2212.98

     local   stress (kbar)    156.65     -0.00     -0.00
                               -0.00    156.65      0.00
                               -0.00      0.00   -576.19

     nonloc. stress (kbar)   2369.04      0.00      0.00
                                0.00   2369.04      0.00
                                0.00      0.00   2359.13

     hartree stress (kbar)    181.29     -0.00     -0.00
                               -0.00    181.29     -0.00
                               -0.00     -0.00    358.57

     exc-cor stress (kbar)   6995.66      0.00      0.00
                                0.00   6995.66     -0.00
                                0.00     -0.00   6998.05

     corecor stress (kbar)  -8266.40     -0.00     -0.00
                               -0.00  -8266.40      0.00
                               -0.00      0.00  -8258.18

     ewald   stress (kbar)  -3755.16      0.00      0.00
                                0.00  -3755.16     -0.00
                                0.00     -0.00  -3063.70

     hubbard stress (kbar)      0.00      0.00      0.00
                                0.00      0.00      0.00
                                0.00      0.00      0.00

     DFT-D   stress (kbar)      0.00      0.00      0.00
                                0.00      0.00      0.00
                                0.00      0.00      0.00

     XDM     stress (kbar)      0.00      0.00      0.00
                                0.00      0.00      0.00
                                0.00      0.00      0.00

     dft-nl  stress (kbar)      0.00      0.00      0.00
                                0.00      0.00      0.00
                                0.00      0.00      0.00

     TS-vdW  stress (kbar)      0.00      0.00      0.00
                                0.00      0.00      0.00
                                0.00      0.00      0.00

     MDB     stress (kbar)      0.00      0.00      0.00
                                0.00      0.00      0.00
                                0.00      0.00      0.00

     3D-RISM stress (kbar)      0.00      0.00      0.00
                                0.00      0.00      0.00
                                0.00      0.00      0.00


     Writing all to output data dir /home/user/workspace/qe_runs/strain_zero_clean/out/te0clean.save/ :
     XML data file, charge density, pseudopotentials, collected wavefunctions

     init_run     :      2.17s CPU      2.53s WALL (       1 calls)
     electrons    :     55.26s CPU     58.67s WALL (       1 calls)
     stress       :      4.35s CPU      4.64s WALL (       1 calls)

     Called by init_run:
     wfcinit      :      1.24s CPU      1.32s WALL (       1 calls)
     wfcinit:atom :      0.01s CPU      0.01s WALL (      34 calls)
     wfcinit:wfcr :      1.18s CPU      1.26s WALL (      34 calls)
     potinit      :      0.18s CPU      0.18s WALL (       1 calls)
     hinit0       :      0.45s CPU      0.46s WALL (       1 calls)

     Called by electrons:
     c_bands      :     44.82s CPU     45.97s WALL (       8 calls)
     sum_band     :      7.98s CPU      9.44s WALL (       8 calls)
     v_of_rho     :      0.23s CPU      0.23s WALL (       9 calls)
     v_h          :      0.01s CPU      0.01s WALL (       9 calls)
     v_xc         :      0.24s CPU      0.25s WALL (      10 calls)
     newd         :      2.34s CPU      3.37s WALL (       9 calls)
     mix_rho      :      0.12s CPU      0.12s WALL (       8 calls)

     Called by c_bands:
     init_us_2    :      0.55s CPU      0.56s WALL (     612 calls)
     cegterg      :     38.03s CPU     39.14s WALL (     272 calls)

     Called by sum_band:
     sum_band:wei :      0.01s CPU      0.01s WALL (       8 calls)
     sum_band:loo :      5.85s CPU      6.05s WALL (       8 calls)
     sum_band:buf :      0.08s CPU      0.08s WALL (     272 calls)
     sum_band:ini :      0.23s CPU      0.23s WALL (     272 calls)
     sum_band:cal :      0.53s CPU      0.54s WALL (     272 calls)
     sum_band:bec :      0.63s CPU      0.64s WALL (     272 calls)
     addusdens    :      2.04s CPU      3.30s WALL (       8 calls)
                                        0.00s GPU  (       8 calls)
     addusd:skk   :      0.00s CPU      0.00s WALL (       8 calls)
                                        0.00s GPU  (       8 calls)

     Called by *egterg:
     cdiaghg      :      1.13s CPU      1.14s WALL (    1572 calls)
     cegterg:over :      1.70s CPU      1.72s WALL (    1300 calls)
     cegterg:upda :      0.99s CPU      1.01s WALL (    1300 calls)
     cegterg:last :      1.91s CPU      1.92s WALL (     769 calls)
     h_psi        :     30.32s CPU     31.39s WALL (    1606 calls)
     s_psi        :      1.79s CPU      1.83s WALL (    1606 calls)
     g_psi        :      0.36s CPU      0.36s WALL (    1300 calls)

     Called by h_psi:
     h_psi:calbec :      2.12s CPU      2.19s WALL (    1606 calls)
     vloc_psi     :     26.20s CPU     27.16s WALL (    1606 calls)
                                        0.00s GPU  (    1606 calls)
     add_vuspsi   :      1.79s CPU      1.82s WALL (    1606 calls)

     General routines
     calbec       :      3.50s CPU      3.59s WALL (    2320 calls)
     fft          :      0.36s CPU      0.37s WALL (     228 calls)
     ffts         :      0.16s CPU      0.16s WALL (      68 calls)
     fftw         :     26.26s CPU     27.23s WALL (  112176 calls)
     interpolate  :      0.18s CPU      0.18s WALL (      36 calls)

     Parallel routines

     PWSCF        :   1m 1.98s CPU   1m 6.11s WALL


   This run was terminated on:   8:28: 5  20Aug2026            

=------------------------------------------------------------------------------=
   JOB DONE.
=------------------------------------------------------------------------------=
