
     Program PWSCF v.7.5 starts on 20Aug2026 at  7:14:17 

     This program is part of the open-source Quantum ESPRESSO suite
     for quantum simulation of materials; please cite
         "P. Giannozzi et al., J. Phys.:Condens. Matter 21 395502 (2009);
         "P. Giannozzi et al., J. Phys.:Condens. Matter 29 465901 (2017);
         "P. Giannozzi et al., J. Chem. Phys. 152 154105 (2020);
          URL http://www.quantum-espresso.org", 
     in publications or presentations arising from this work. More details at
     http://www.quantum-espresso.org/quote

     Parallel version (MPI & OpenMP), running on       2 processor cores
     Number of MPI processes:                 1
     Threads/MPI process:                     2

     MPI processes distributed on     1 nodes
     4375 MiB available memory on the printing compute node when the environment starts

     Reading input from te_smoke.in

     Current dimensions of program PWSCF are:
     Max number of different atomic species (ntypx) = 10
     Max number of k-points (npk) =  40000
     Max angular momentum in pseudopotentials (lmaxx) =  4
     file Te.rel-pbe-n-rrkjus_psl.1.0.0.UPF: wavefunction(s)  5S renormalized
     Message from routine setup:
     using ibrav=0 with symmetry is DISCOURAGED, use correct ibrav instead

     Subspace diagonalization in iterative solution of the eigenvalue problem:
     a serial algorithm will be used


     G-vector sticks info
     --------------------
     sticks:   dense  smooth     PW     G-vecs:    dense   smooth      PW
     Sum         967     499    151                32821    11693    1969

     Using Slab Decomposition



     bravais-lattice index     =            0
     lattice parameter (alat)  =       8.4229  a.u.
     unit-cell volume          =     688.4532 (a.u.)^3
     number of atoms/cell      =            3
     number of atomic types    =            1
     number of electrons       =        18.00
     number of Kohn-Sham states=           18
     kinetic-energy cutoff     =      25.0000  Ry
     charge density cutoff     =     200.0000  Ry
     scf convergence threshold =      1.0E-06
     mixing beta               =       0.3000
     number of iterations used =            8  plain     mixing
     Exchange-correlation= PBE
                           (   1   4   3   4   0   0   0)
     Non magnetic calculation with spin-orbit


     celldm(1)=   8.422887  celldm(2)=   0.000000  celldm(3)=   0.000000
     celldm(4)=   0.000000  celldm(5)=   0.000000  celldm(6)=   0.000000

     crystal axes: (cart. coord. in units of alat)
               a(1) = (   1.000000   0.000000   0.000000 )  
               a(2) = (  -0.500000   0.866108   0.000000 )  
               a(3) = (   0.000000   0.000000   1.330207 )  

     reciprocal axes: (cart. coord. in units 2 pi/alat)
               b(1) = (  1.000000  0.577295 -0.000000 )  
               b(2) = (  0.000000  1.154590  0.000000 )  
               b(3) = (  0.000000 -0.000000  0.751763 )  


     PseudoPot. # 1 for Te read from file:
     /home/user/workspace/qe_runs/pseudo/Te.rel-pbe-n-rrkjus_psl.1.0.0.UPF
     MD5 check sum: 7fd30b6833abd190471e4dcc2367351b
     Pseudo is Ultrasoft + core correction, Zval =  6.0
     Generated using &quot;atomic&quot; code by A. Dal Corso  v.6.3
     Using radial grid of 1245 points, 10 beta functions with: 
                l(1) =   0
                l(2) =   0
                l(3) =   1
                l(4) =   1
                l(5) =   1
                l(6) =   1
                l(7) =   2
                l(8) =   2
                l(9) =   2
               l(10) =   2
     Q(r) pseudized with 0 coefficients 


     atomic species   valence    mass     pseudopotential
     Te                6.00   127.60000     Te( 1.00)

      2 Sym. Ops. (no inversion) found ( 1 have fractional translation)


                                    s                        frac. trans.

      isym =  1     identity                                     

 cryst.   s( 1) = (     1          0          0      )
                  (     0          1          0      )
                  (     0          0          1      )

 cart.    s( 1) = (  1.0000000  0.0000000  0.0000000 )
                  (  0.0000000  1.0000000  0.0000000 )
                  (  0.0000000  0.0000000  1.0000000 )


      isym =  2     180 deg rotation - cart. axis [1,0,0]        

 cryst.   s( 2) = (     1          0          0      )    f =(  0.0000000 )
                  (    -1         -1          0      )       (  0.0000000 )
                  (     0          0         -1      )       (  0.3333334 )

 cart.    s( 2) = (  1.0000000  0.0000000  0.0000000 )    f =(  0.0000000 )
                  (  0.0000000 -1.0000000  0.0000000 )       (  0.0000000 )
                  (  0.0000000  0.0000000 -1.0000000 )       (  0.4434025 )


   Cartesian axes

     site n.     atom                  positions (alat units)
         1        Te     tau(   1) = (   0.2636000   0.0000000   0.4434024  )
         2        Te     tau(   2) = (  -0.1318000   0.2283061   0.8868049  )
         3        Te     tau(   3) = (  -0.1318000  -0.2283061   0.0000000  )

   Crystallographic axes

     site n.     atom                  positions (cryst. coord.)
         1        Te     tau(   1) = (  0.2636000  0.0000000  0.3333333  )
         2        Te     tau(   2) = (  0.0000000  0.2636000  0.6666667  )
         3        Te     tau(   3) = ( -0.2636000 -0.2636000  0.0000000  )

     number of k points=    24
                       cart. coord. in units 2pi/alat
        k(    1) = (   0.0000000   0.0000000   0.0000000), wk =   0.0156250
        k(    2) = (   0.0000000   0.0000000   0.1879406), wk =   0.0312500
        k(    3) = (   0.0000000   0.0000000  -0.3758813), wk =   0.0156250
        k(    4) = (   0.0000000   0.2886476   0.0000000), wk =   0.0312500
        k(    5) = (   0.0000000   0.2886476   0.1879406), wk =   0.0312500
        k(    6) = (   0.0000000   0.2886476  -0.3758813), wk =   0.0312500
        k(    7) = (   0.0000000  -0.5772951   0.0000000), wk =   0.0156250
        k(    8) = (   0.0000000  -0.5772951   0.1879406), wk =   0.0312500
        k(    9) = (   0.0000000  -0.5772951  -0.3758813), wk =   0.0156250
        k(   10) = (   0.2500000   0.1443238   0.0000000), wk =   0.0625000
        k(   11) = (   0.2500000   0.1443238   0.1879406), wk =   0.0625000
        k(   12) = (   0.2500000   0.1443238  -0.3758813), wk =   0.0625000
        k(   13) = (   0.2500000   0.4329714   0.0000000), wk =   0.0625000
        k(   14) = (   0.2500000   0.4329714   0.1879406), wk =   0.0625000
        k(   15) = (   0.2500000   0.4329714  -0.3758813), wk =   0.0625000
        k(   16) = (  -0.5000000  -0.2886476   0.0000000), wk =   0.0312500
        k(   17) = (  -0.5000000  -0.2886476   0.1879406), wk =   0.0625000
        k(   18) = (  -0.5000000  -0.2886476  -0.3758813), wk =   0.0312500
        k(   19) = (  -0.5000000   0.0000000   0.0000000), wk =   0.0312500
        k(   20) = (  -0.5000000   0.0000000   0.1879406), wk =   0.0625000
        k(   21) = (  -0.5000000   0.0000000  -0.3758813), wk =   0.0312500
        k(   22) = (   0.0000000   0.2886476  -0.1879406), wk =   0.0312500
        k(   23) = (  -0.2500000   0.1443238  -0.1879406), wk =   0.0625000
        k(   24) = (  -0.2500000   0.4329714  -0.1879406), wk =   0.0625000

                       cryst. coord.
        k(    1) = (   0.0000000   0.0000000   0.0000000), wk =   0.0156250
        k(    2) = (   0.0000000   0.0000000   0.2500000), wk =   0.0312500
        k(    3) = (   0.0000000   0.0000000  -0.5000000), wk =   0.0156250
        k(    4) = (   0.0000000   0.2500000   0.0000000), wk =   0.0312500
        k(    5) = (   0.0000000   0.2500000   0.2500000), wk =   0.0312500
        k(    6) = (   0.0000000   0.2500000  -0.5000000), wk =   0.0312500
        k(    7) = (   0.0000000  -0.5000000   0.0000000), wk =   0.0156250
        k(    8) = (   0.0000000  -0.5000000   0.2500000), wk =   0.0312500
        k(    9) = (   0.0000000  -0.5000000  -0.5000000), wk =   0.0156250
        k(   10) = (   0.2500000   0.0000000   0.0000000), wk =   0.0625000
        k(   11) = (   0.2500000   0.0000000   0.2500000), wk =   0.0625000
        k(   12) = (   0.2500000   0.0000000  -0.5000000), wk =   0.0625000
        k(   13) = (   0.2500000   0.2500000   0.0000000), wk =   0.0625000
        k(   14) = (   0.2500000   0.2500000   0.2500000), wk =   0.0625000
        k(   15) = (   0.2500000   0.2500000  -0.5000000), wk =   0.0625000
        k(   16) = (  -0.5000000   0.0000000   0.0000000), wk =   0.0312500
        k(   17) = (  -0.5000000   0.0000000   0.2500000), wk =   0.0625000
        k(   18) = (  -0.5000000   0.0000000  -0.5000000), wk =   0.0312500
        k(   19) = (  -0.5000000   0.2500000   0.0000000), wk =   0.0312500
        k(   20) = (  -0.5000000   0.2500000   0.2500000), wk =   0.0625000
        k(   21) = (  -0.5000000   0.2500000  -0.5000000), wk =   0.0312500
        k(   22) = (   0.0000000   0.2500000  -0.2500000), wk =   0.0312500
        k(   23) = (  -0.2500000   0.2500000  -0.2500000), wk =   0.0625000
        k(   24) = (  -0.2500000   0.5000000  -0.2500000), wk =   0.0625000

     Dense  grid:    32821 G-vectors     FFT dimensions: (  40,  40,  54)

     Smooth grid:    11693 G-vectors     FFT dimensions: (  27,  27,  36)

     Dynamical RAM for                 wfc:       0.80 MB

     Dynamical RAM for     wfc (w. buffer):      19.95 MB

     Dynamical RAM for           str. fact:       0.50 MB

     Dynamical RAM for           local pot:       0.00 MB

     Dynamical RAM for          nlocal pot:       2.26 MB

     Dynamical RAM for                qrad:       2.98 MB

     Dynamical RAM for          rho,v,vnew:      13.92 MB

     Dynamical RAM for               rhoin:       4.64 MB

     Dynamical RAM for            rho*nmix:      32.05 MB

     Dynamical RAM for           G-vectors:       1.97 MB

     Dynamical RAM for          h,s,v(r/c):       0.06 MB

     Dynamical RAM for          <psi|beta>:       0.06 MB

     Dynamical RAM for                 psi:       1.60 MB

     Dynamical RAM for                hpsi:       1.60 MB

     Dynamical RAM for                spsi:       1.60 MB

     Dynamical RAM for      wfcinit/wfcrot:       1.20 MB

     Dynamical RAM for           addusdens:     307.00 MB

     Estimated static dynamical RAM per process >      52.49 MB

     Estimated max dynamical RAM per process >     391.54 MB

     Initial potential from superposition of free atoms

     starting charge      17.9993, renormalised to      18.0000
     Starting wfcs are   24 randomized atomic wfcs

     total cpu time spent up to now is        4.5 secs

     per-process dynamical memory:    68.7 Mb

     Self-consistent Calculation

     iteration #  1     ecut=    25.00 Ry     beta= 0.30
     Davidson diagonalization with overlap

---- Real-time Memory Report at c_bands before calling an iterative solver
           376 MiB given to the printing process from OS
            69 MiB allocation reported by mallinfo(arena+hblkhd)
          4315 MiB available memory on the node where the printing process lives
------------------
     ethr =  1.00E-02,  avg # of iterations =  2.0

     Threshold (ethr) on eigenvalues was too large:
     Diagonalizing with lowered threshold

     Davidson diagonalization with overlap

---- Real-time Memory Report at c_bands before calling an iterative solver
           408 MiB given to the printing process from OS
            79 MiB allocation reported by mallinfo(arena+hblkhd)
          4301 MiB available memory on the node where the printing process lives
------------------
     ethr =  1.25E-04,  avg # of iterations =  5.4

     total cpu time spent up to now is       39.0 secs

     total energy              =     -85.64220541 Ry
     estimated scf accuracy    <       0.01713221 Ry

     iteration #  2     ecut=    25.00 Ry     beta= 0.30
     Davidson diagonalization with overlap

---- Real-time Memory Report at c_bands before calling an iterative solver
           414 MiB given to the printing process from OS
            83 MiB allocation reported by mallinfo(arena+hblkhd)
          4295 MiB available memory on the node where the printing process lives
------------------
     ethr =  9.52E-05,  avg # of iterations =  1.4

     total cpu time spent up to now is       49.8 secs

     total energy              =     -85.64154005 Ry
     estimated scf accuracy    <       0.00730428 Ry

     iteration #  3     ecut=    25.00 Ry     beta= 0.30
     Davidson diagonalization with overlap

---- Real-time Memory Report at c_bands before calling an iterative solver
           416 MiB given to the printing process from OS
            84 MiB allocation reported by mallinfo(arena+hblkhd)
          4294 MiB available memory on the node where the printing process lives
------------------
     ethr =  4.06E-05,  avg # of iterations =  2.5

     total cpu time spent up to now is       63.6 secs

     total energy              =     -85.64233237 Ry
     estimated scf accuracy    <       0.00028146 Ry

     iteration #  4     ecut=    25.00 Ry     beta= 0.30
     Davidson diagonalization with overlap

---- Real-time Memory Report at c_bands before calling an iterative solver
           417 MiB given to the printing process from OS
            86 MiB allocation reported by mallinfo(arena+hblkhd)
          4293 MiB available memory on the node where the printing process lives
------------------
     ethr =  1.56E-06,  avg # of iterations = 12.0

     total cpu time spent up to now is      104.4 secs

     total energy              =     -85.64312022 Ry
     estimated scf accuracy    <       0.00025787 Ry

     iteration #  5     ecut=    25.00 Ry     beta= 0.30
     Davidson diagonalization with overlap

---- Real-time Memory Report at c_bands before calling an iterative solver
           418 MiB given to the printing process from OS
            87 MiB allocation reported by mallinfo(arena+hblkhd)
          4291 MiB available memory on the node where the printing process lives
------------------
     ethr =  1.43E-06,  avg # of iterations =  1.3

     total cpu time spent up to now is      114.7 secs

     total energy              =     -85.64306786 Ry
     estimated scf accuracy    <       0.00016666 Ry

     iteration #  6     ecut=    25.00 Ry     beta= 0.30
     Davidson diagonalization with overlap

---- Real-time Memory Report at c_bands before calling an iterative solver
           420 MiB given to the printing process from OS
            89 MiB allocation reported by mallinfo(arena+hblkhd)
          4289 MiB available memory on the node where the printing process lives
------------------
     ethr =  9.26E-07,  avg # of iterations =  1.3

     total cpu time spent up to now is      125.1 secs

     total energy              =     -85.64304855 Ry
     estimated scf accuracy    <       0.00004987 Ry

     iteration #  7     ecut=    25.00 Ry     beta= 0.30
     Davidson diagonalization with overlap

---- Real-time Memory Report at c_bands before calling an iterative solver
           421 MiB given to the printing process from OS
            90 MiB allocation reported by mallinfo(arena+hblkhd)
          4288 MiB available memory on the node where the printing process lives
------------------
     ethr =  2.77E-07,  avg # of iterations =  5.2

     total cpu time spent up to now is      146.2 secs

     End of self-consistent calculation

          k = 0.0000 0.0000 0.0000 (  1421 PWs)   bands (ev):

    -7.6593  -7.6593  -4.3284  -4.3284  -4.3270  -4.3270   2.7410   2.7410
     2.9400   2.9400   3.3739   3.3739   4.3289   4.3289   4.3765   4.3765
     5.2387   5.2387

     occupation numbers 
     1.0000   1.0000   1.0000   1.0000   1.0000   1.0000   1.0000   1.0000
     1.0000   1.0000   1.0000   1.0000   1.0000   1.0000   1.0000   1.0000
     1.0000   1.0000

          k = 0.0000 0.0000 0.1879 (  1464 PWs)   bands (ev):

    -7.4334  -7.4317  -5.6973  -5.6941  -2.9135  -2.9106   2.2787   2.3190
     3.0328   3.0518   3.2291   3.6726   4.3342   4.4549   4.5219   4.6603
     5.0845   5.2480

     occupation numbers 
     1.0000   1.0000   1.0000   1.0000   1.0000   1.0000   1.0000   1.0000
     1.0000   1.0000   1.0000   1.0000   1.0000   1.0000   1.0000   1.0000
     1.0000   1.0000

          k = 0.0000 0.0000-0.3759 (  1482 PWs)   bands (ev):

    -6.7656  -6.7656  -6.7624  -6.7624  -2.1717  -2.1717   1.8241   1.8241
     3.1656   3.1656   3.4535   3.4535   4.5487   4.5487   4.7816   4.7816
     5.0622   5.0622

     occupation numbers 
     1.0000   1.0000   1.0000   1.0000   1.0000   1.0000   1.0000   1.0000
     1.0000   1.0000   1.0000   1.0000   1.0000   1.0000   1.0000   1.0000
     1.0000   1.0000

          k = 0.0000 0.2886 0.0000 (  1438 PWs)   bands (ev):

    -7.2694  -7.2689  -4.5112  -4.5048  -4.2196  -4.2150   1.2843   1.3515
     1.9298   2.0765   2.5502   2.7568   4.2579   4.3664   4.7890   5.0147
     5.1289   5.2694

     occupation numbers 
     1.0000   1.0000   1.0000   1.0000   1.0000   1.0000   1.0000   1.0000
     1.0000   1.0000   1.0000   1.0000   1.0000   1.0000   1.0000   1.0000
     1.0000   1.0000

          k = 0.0000 0.2886 0.1879 (  1453 PWs)   bands (ev):

    -7.0521  -7.0494  -5.5297  -5.5253  -3.2919  -3.2862   1.2512   1.3179
     1.6349   1.7641   2.7276   2.8675   4.4238   4.5037   4.7769   4.8818
     5.6631   5.7229

     occupation numbers 
     1.0000   1.0000   1.0000   1.0000   1.0000   1.0000   1.0000   1.0000
     1.0000   1.0000   1.0000   1.0000   1.0000   1.0000   1.0000   1.0000
     1.0000   1.0000

          k = 0.0000 0.2886-0.3759 (  1456 PWs)   bands (ev):

    -6.4892  -6.4871  -6.3930  -6.3910  -2.9543  -2.9531   1.3215   1.4044
     2.2537   2.4408   2.7214   2.8581   3.8502   3.9607   4.1338   4.1955
     4.6314   4.8059

     occupation numbers 
     1.0000   1.0000   1.0000   1.0000   1.0000   1.0000   1.0000   1.0000
     1.0000   1.0000   1.0000   1.0000   1.0000   1.0000   1.0000   1.0000
     1.0000   1.0000

          k = 0.0000-0.5773 0.0000 (  1462 PWs)   bands (ev):

    -6.6617  -6.6617  -5.0167  -5.0167  -4.0890  -4.0890   1.0224   1.0224
     1.5186   1.5186   2.3534   2.3534   2.5617   2.5617   4.8267   4.8267
     5.1129   5.1129

     occupation numbers 
     1.0000   1.0000   1.0000   1.0000   1.0000   1.0000   1.0000   1.0000
     1.0000   1.0000   1.0000   1.0000   1.0000   1.0000   1.0000   1.0000
     1.0000   1.0000

          k = 0.0000-0.5773 0.1879 (  1452 PWs)   bands (ev):

    -6.4960  -6.4905  -5.3450  -5.3386  -3.9894  -3.9808   0.6918   0.7349
     1.3815   1.4814   2.3533   2.4827   3.5834   3.8666   4.2253   4.4103
     4.5386   4.7548

     occupation numbers 
     1.0000   1.0000   1.0000   1.0000   1.0000   1.0000   1.0000   1.0000
     1.0000   1.0000   1.0000   1.0000   1.0000   1.0000   1.0000   1.0000
     1.0000   1.0000

          k = 0.0000-0.5773-0.3759 (  1468 PWs)   bands (ev):

    -6.1588  -6.1588  -5.8059  -5.8059  -3.8981  -3.8981   0.2781   0.2781
     2.1574   2.1574   2.2868   2.2868   3.5744   3.5744   3.9354   3.9354
     5.7929   5.7930

     occupation numbers 
     1.0000   1.0000   1.0000   1.0000   1.0000   1.0000   1.0000   1.0000
     1.0000   1.0000   1.0000   1.0000   1.0000   1.0000   1.0000   1.0000
     1.0000   1.0000

          k = 0.2500 0.1443 0.0000 (  1438 PWs)   bands (ev):

    -7.2693  -7.2688  -4.5113  -4.5049  -4.2195  -4.2149   1.2841   1.3513
     1.9298   2.0764   2.5500   2.7565   4.2583   4.3670   4.7886   5.0145
     5.1285   5.2691

     occupation numbers 
     1.0000   1.0000   1.0000   1.0000   1.0000   1.0000   1.0000   1.0000
     1.0000   1.0000   1.0000   1.0000   1.0000   1.0000   1.0000   1.0000
     1.0000   1.0000

          k = 0.2500 0.1443 0.1879 (  1453 PWs)   bands (ev):

    -7.0654  -7.0628  -5.4590  -5.4549  -3.4468  -3.4414   1.6170   1.7140
     2.2023   2.3567   2.8209   3.0661   3.2324   3.4723   4.0855   4.3683
     4.6475   4.8639

     occupation numbers 
     1.0000   1.0000   1.0000   1.0000   1.0000   1.0000   1.0000   1.0000
     1.0000   1.0000   1.0000   1.0000   1.0000   1.0000   1.0000   1.0000
     1.0000   1.0000

          k = 0.2500 0.1443-0.3759 (  1456 PWs)   bands (ev):

    -6.4885  -6.4864  -6.3936  -6.3916  -2.9544  -2.9531   1.3216   1.4045
     2.2537   2.4410   2.7211   2.8579   3.8500   3.9605   4.1332   4.1951
     4.6313   4.8056

     occupation numbers 
     1.0000   1.0000   1.0000   1.0000   1.0000   1.0000   1.0000   1.0000
     1.0000   1.0000   1.0000   1.0000   1.0000   1.0000   1.0000   1.0000
     1.0000   1.0000

          k = 0.2500 0.4330 0.0000 (  1465 PWs)   bands (ev):

    -6.6961  -6.6952  -4.7375  -4.7270  -4.3829  -4.3731   1.1451   1.2687
     1.2699   1.3983   2.5920   2.7890   3.2642   3.3268   3.6336   3.6356
     3.9094   3.9370

     occupation numbers 
     1.0000   1.0000   1.0000   1.0000   1.0000   1.0000   1.0000   1.0000
     1.0000   1.0000   1.0000   1.0000   1.0000   1.0000   1.0000   1.0000
     1.0000   1.0000

          k = 0.2500 0.4330 0.1879 (  1452 PWs)   bands (ev):

    -6.5189  -6.5138  -5.3030  -5.2965  -3.9909  -3.9815   0.7988   0.8538
     1.3375   1.4250   2.1736   2.2678   3.0250   3.2083   4.4758   4.5857
     5.2705   5.3998

     occupation numbers 
     1.0000   1.0000   1.0000   1.0000   1.0000   1.0000   1.0000   1.0000
     1.0000   1.0000   1.0000   1.0000   1.0000   1.0000   1.0000   1.0000
     1.0000   1.0000

          k = 0.2500 0.4330-0.3759 (  1452 PWs)   bands (ev):

    -6.0833  -6.0794  -5.9349  -5.9303  -3.7804  -3.7785   0.7241   0.7849
     1.2043   1.2382   1.4911   1.5557   4.4124   4.5179   5.1084   5.1399
     5.5340   5.6251

     occupation numbers 
     1.0000   1.0000   1.0000   1.0000   1.0000   1.0000   1.0000   1.0000
     1.0000   1.0000   1.0000   1.0000   1.0000   1.0000   1.0000   1.0000
     1.0000   1.0000

          k =-0.5000-0.2886 0.0000 (  1462 PWs)   bands (ev):

    -6.6613  -6.6613  -5.0169  -5.0169  -4.0890  -4.0890   1.0226   1.0226
     1.5181   1.5181   2.3534   2.3534   2.5618   2.5618   4.8264   4.8265
     5.1123   5.1123

     occupation numbers 
     1.0000   1.0000   1.0000   1.0000   1.0000   1.0000   1.0000   1.0000
     1.0000   1.0000   1.0000   1.0000   1.0000   1.0000   1.0000   1.0000
     1.0000   1.0000

          k =-0.5000-0.2886 0.1879 (  1452 PWs)   bands (ev):

    -6.4956  -6.4901  -5.3451  -5.3387  -3.9895  -3.9808   0.6917   0.7348
     1.3814   1.4815   2.3529   2.4825   3.5832   3.8665   4.2249   4.4098
     4.5382   4.7546

     occupation numbers 
     1.0000   1.0000   1.0000   1.0000   1.0000   1.0000   1.0000   1.0000
     1.0000   1.0000   1.0000   1.0000   1.0000   1.0000   1.0000   1.0000
     1.0000   1.0000

          k =-0.5000-0.2886-0.3759 (  1468 PWs)   bands (ev):

    -6.1579  -6.1579  -5.8064  -5.8064  -3.8981  -3.8981   0.2781   0.2781
     2.1571   2.1571   2.2866   2.2866   3.5741   3.5741   3.9349   3.9349
     5.7932   5.7932

     occupation numbers 
     1.0000   1.0000   1.0000   1.0000   1.0000   1.0000   1.0000   1.0000
     1.0000   1.0000   1.0000   1.0000   1.0000   1.0000   1.0000   1.0000
     1.0000   1.0000

          k =-0.5000 0.0000 0.0000 (  1465 PWs)   bands (ev):

    -6.6959  -6.6950  -4.7380  -4.7274  -4.3825  -4.3728   1.1450   1.2686
     1.2697   1.3981   2.5924   2.7893   3.2641   3.3269   3.6336   3.6353
     3.9094   3.9369

     occupation numbers 
     1.0000   1.0000   1.0000   1.0000   1.0000   1.0000   1.0000   1.0000
     1.0000   1.0000   1.0000   1.0000   1.0000   1.0000   1.0000   1.0000
     1.0000   1.0000

          k =-0.5000 0.0000 0.1879 (  1452 PWs)   bands (ev):

    -6.5187  -6.5136  -5.3030  -5.2965  -3.9910  -3.9816   0.7985   0.8536
     1.3375   1.4251   2.1737   2.2678   3.0250   3.2081   4.4755   4.5853
     5.2709   5.4001

     occupation numbers 
     1.0000   1.0000   1.0000   1.0000   1.0000   1.0000   1.0000   1.0000
     1.0000   1.0000   1.0000   1.0000   1.0000   1.0000   1.0000   1.0000
     1.0000   1.0000

          k =-0.5000 0.0000-0.3759 (  1452 PWs)   bands (ev):

    -6.0825  -6.0786  -5.9355  -5.9309  -3.7805  -3.7786   0.7240   0.7847
     1.2041   1.2380   1.4914   1.5559   4.4123   4.5177   5.1082   5.1397
     5.5334   5.6245

     occupation numbers 
     1.0000   1.0000   1.0000   1.0000   1.0000   1.0000   1.0000   1.0000
     1.0000   1.0000   1.0000   1.0000   1.0000   1.0000   1.0000   1.0000
     1.0000   1.0000

          k = 0.0000 0.2886-0.1879 (  1453 PWs)   bands (ev):

    -7.0655  -7.0630  -5.4588  -5.4547  -3.4470  -3.4417   1.6174   1.7144
     2.2023   2.3568   2.8214   3.0665   3.2319   3.4719   4.0857   4.3684
     4.6479   4.8641

     occupation numbers 
     1.0000   1.0000   1.0000   1.0000   1.0000   1.0000   1.0000   1.0000
     1.0000   1.0000   1.0000   1.0000   1.0000   1.0000   1.0000   1.0000
     1.0000   1.0000

          k =-0.2500 0.1443-0.1879 (  1453 PWs)   bands (ev):

    -7.0520  -7.0493  -5.5295  -5.5251  -3.2921  -3.2864   1.2513   1.3180
     1.6352   1.7644   2.7274   2.8674   4.4233   4.5032   4.7764   4.8812
     5.6635   5.7234

     occupation numbers 
     1.0000   1.0000   1.0000   1.0000   1.0000   1.0000   1.0000   1.0000
     1.0000   1.0000   1.0000   1.0000   1.0000   1.0000   1.0000   1.0000
     1.0000   1.0000

          k =-0.2500 0.4330-0.1879 (  1452 PWs)   bands (ev):

    -6.5190  -6.5138  -5.3029  -5.2964  -3.9911  -3.9816   0.7987   0.8537
     1.3375   1.4251   2.1737   2.2677   3.0249   3.2080   4.4759   4.5857
     5.2710   5.4003

     occupation numbers 
     1.0000   1.0000   1.0000   1.0000   1.0000   1.0000   1.0000   1.0000
     1.0000   1.0000   1.0000   1.0000   1.0000   1.0000   1.0000   1.0000
     1.0000   1.0000

     highest occupied level (ev):     5.7932

!    total energy              =     -85.64306519 Ry
     estimated scf accuracy    <       0.00000049 Ry

     The total energy is the sum of the following terms:
     one-electron contribution =      10.16336065 Ry
     hartree contribution      =       3.37677747 Ry
     xc contribution           =     -49.70312704 Ry
     ewald contribution        =     -49.48007628 Ry

     convergence has been achieved in   7 iterations

     Writing all to output data dir /home/user/workspace/qe_runs/strain_0/smoke_out/te_smoke.save/ :
     XML data file, charge density, pseudopotentials, collected wavefunctions

     init_run     :      7.53s CPU      4.38s WALL (       1 calls)
     electrons    :    275.26s CPU    141.73s WALL (       1 calls)

     Called by init_run:
     wfcinit      :      6.28s CPU      3.19s WALL (       1 calls)
     wfcinit:atom :      0.02s CPU      0.01s WALL (      24 calls)
     wfcinit:wfcr :      6.07s CPU      3.09s WALL (      24 calls)
     potinit      :      0.23s CPU      0.18s WALL (       1 calls)
     hinit0       :      0.67s CPU      0.62s WALL (       1 calls)

     Called by electrons:
     c_bands      :    226.46s CPU    114.37s WALL (       8 calls)
     sum_band     :     45.83s CPU     24.56s WALL (       8 calls)
     v_of_rho     :      0.29s CPU      0.15s WALL (       8 calls)
     v_h          :      0.02s CPU      0.01s WALL (       8 calls)
     v_xc         :      0.27s CPU      0.14s WALL (       8 calls)
     newd         :      2.79s CPU      2.89s WALL (       8 calls)
     mix_rho      :      0.14s CPU      0.10s WALL (       8 calls)

     Called by c_bands:
     init_us_2    :      0.73s CPU      0.34s WALL (     408 calls)
     cegterg      :    219.64s CPU    110.91s WALL (     192 calls)

     Called by sum_band:
     sum_band:wei :      0.00s CPU      0.00s WALL (       8 calls)
     sum_band:loo :     41.45s CPU     20.91s WALL (       8 calls)
     sum_band:buf :      0.16s CPU      0.06s WALL (     192 calls)
     sum_band:ini :      0.33s CPU      0.15s WALL (     192 calls)
     sum_band:cal :      1.44s CPU      0.65s WALL (     192 calls)
     sum_band:bec :      0.74s CPU      0.46s WALL (     192 calls)
     addusdens    :      2.98s CPU      2.93s WALL (       8 calls)
                                        0.00s GPU  (       8 calls)
     addusd:skk   :      0.01s CPU      0.01s WALL (       8 calls)
                                        0.00s GPU  (       8 calls)

     Called by *egterg:
     cdiaghg      :      0.59s CPU      0.34s WALL (     913 calls)
     cegterg:over :      0.65s CPU      0.35s WALL (     745 calls)
     cegterg:upda :     11.06s CPU      5.49s WALL (     745 calls)
     cegterg:last :      0.75s CPU      0.39s WALL (     522 calls)
     h_psi        :    185.88s CPU     93.69s WALL (     961 calls)
     s_psi        :      1.25s CPU      0.68s WALL (     961 calls)
     g_psi        :      0.21s CPU      0.11s WALL (     745 calls)

     Called by h_psi:
     h_psi:calbec :      5.57s CPU      2.32s WALL (     961 calls)
     vloc_psi     :    166.41s CPU     84.30s WALL (     961 calls)
                                        0.00s GPU  (     961 calls)
     add_vuspsi   :      0.68s CPU      0.52s WALL (     961 calls)

     General routines
     calbec       :      7.01s CPU      2.97s WALL (    1153 calls)
     fft          :      0.38s CPU      0.30s WALL (     190 calls)
     ffts         :      1.48s CPU      0.80s WALL (      64 calls)
     fftw         :    184.88s CPU     93.49s WALL (   52380 calls)
     interpolate  :      0.22s CPU      0.17s WALL (      32 calls)

     Parallel routines

     PWSCF        :   4m43.02s CPU   2m26.32s WALL


   This run was terminated on:   7:16:44  20Aug2026            

=------------------------------------------------------------------------------=
   JOB DONE.
=------------------------------------------------------------------------------=
